TiO2_rutile-Ovequatorial-adjustTi       
   1.00000000000000     
     9.1880000000000006    0.0000000000000000    0.0000000000000000
     0.0000000000000000    9.1880000000000006    0.0000000000000000
     0.0000000000000000    0.0000000000000000    8.8770000000000007
   O    Ti
    47    24
Selective dynamics
Direct
  0.1515403637273474  0.1516799423987013  0.0010759834656120   T   T   T
  0.3530973051139237  0.3456127189931666 -0.0020491066040093   T   T   T
  0.0983931446226899  0.4017600302008651  0.1646633130029730   T   T   T
  0.4022781624032925  0.0986566818085088  0.1681223547570880   T   T   T
  0.6457075267822603  0.1589963650925451 -0.0036046021129333   T   T   T
  0.8408961305895091  0.3543174294439224 -0.0035165071099179   T   T   T
  0.5963778090105366  0.4032349972215969  0.1677872234627165   T   T   T
  0.8993981938060229  0.1004566583108653  0.1627715763710902   T   T   T
  0.1502627857528039  0.6531268158925850  0.0017995644755768   T   T   T
  0.3466332426227689  0.8498428995467320  0.0019172929594908   T   T   T
  0.0959999960817446  0.9035822144721026  0.1694839616890418   T   T   T
  0.3987869145875222  0.6009824729688660  0.1702570827344234   T   T   T
  0.6543924540033359  0.6467153047110061 -0.0017527731885288   T   T   T
  0.8481348332381619  0.8485125992619363  0.0008940033987278   T   T   T
  0.5981315796150455  0.9015987752110438  0.1646158687932044   T   T   T
  0.9014841631895353  0.5977637428691583  0.1680582103390520   T   T   T
  0.1505978265008749  0.1527593324514116  0.3330254813064453   T   T   T
  0.3459172734800745  0.3491010193660756  0.3337204066294683   T   T   T
  0.0974511305487137  0.4010782114081674  0.5020455837734386   T   T   T
  0.4018771345615472  0.0977631422624273  0.4989698640332326   T   T   T
  0.6532168128030008  0.1502095063151640  0.3324192320933140   T   T   T
  0.8496724883647209  0.3468553175531538  0.3322933784166304   T   T   T
  0.6013147778124180  0.3986471557055137  0.4922193069764446   T   T   T
  0.9006557077647485  0.0994406546692478  0.5040784447174728   T   T   T
  0.1501459592168572  0.6524134139061981  0.3335827657305128   T   T   T
  0.3474147220636155  0.8498768034203356  0.3334424119440984   T   T   T
  0.0972299537795550  0.9026703580204725  0.4965385955853857   T   T   T
  0.3989452674749700  0.6011962088097831  0.4965845494687610   T   T   T
  0.6509170969861384  0.6538821784850598  0.3334302942175681   T   T   T
  0.8470824005662342  0.8494632933991548  0.3332662485664742   T   T   T
  0.5987541390669032  0.9023241767431752  0.5019606280975230   T   T   T
  0.9021937078746975  0.5981030765955662  0.4989064388199691   T   T   T
  0.1512751091371786  0.1509433267816731  0.6664655124455904   T   T   T
  0.3506850418750050  0.3434927226389070  0.6688578554785043   T   T   T
  0.0966100005554862  0.4006637741584766  0.8337344436719328   T   T   T
  0.3985152004659581  0.0951937839087615  0.8334996576059976   T   T   T
  0.6456740786958226  0.1589007503614089  0.6700871367171407   T   T   T
  0.8409761318320322  0.3544578878631843  0.6701191398072098   T   T   T
  0.9037843668429999  0.0962930395774758  0.8328057715295831   T   T   T
  0.1517636815402065  0.6519196869113784  0.6672102688212934   T   T   T
  0.3479804034850876  0.8483079917128363  0.6672291676323039   T   T   T
  0.0989183046713881  0.9008441199715146  0.8340390422237581   T   T   T
  0.4010768033911852  0.5990150258316923  0.8414195589079347   T   T   T
  0.6564074876840353  0.6491001211285626  0.6689083575622542   T   T   T
  0.8487514565818757  0.8485755967777474  0.6664877376138827   T   T   T
  0.5991777361621570  0.9032074178831356  0.8338542958604914   T   T   T
  0.9047657730806090  0.6014300668264806  0.8336108471291378   T   T   T
  0.0022645832286564 -0.0022039903777185  0.0016938127726900   T   T   T
  0.2508528392061807  0.2501092188844259  0.1670128125765186   T   T   T
  0.4983574675276715  0.0005990115273912  0.0000260089866561   T   T   T
  0.7462203789891597  0.2536156123198768  0.1663338591508751   T   T   T
 -0.0005537741092525  0.5015000292968748  0.0000698227823510   T   T   T
  0.2466414917802948  0.7530981278442779  0.1684885273120815   T   T   T
  0.4928625916675359  0.5069687118091439  0.0085972073666785   T   T   T
  0.7501463435632413  0.7494745998636678  0.1670660993359333   T   T   T
 -0.0054121420143779  0.0054363685887077  0.3339149758958516   T   T   T
  0.2504390890004081  0.2498540730275078  0.5006719003319415   T   T   T
  0.5010688719268150 -0.0010533352318958  0.3332986264020534   T   T   T
  0.7482727860053119  0.2517814622991041  0.4997511763855311   T   T   T
  0.0010268093651845  0.4988558599955100  0.3332897055699728   T   T   T
  0.2507089056450129  0.7493541362070935  0.5002515514976225   T   T   T
  0.4993823706353340  0.5005320044411637  0.3393860357970535   T   T   T
  0.7499238168469575  0.7492162029916234  0.5005759505434074   T   T   T
  0.0044504676054645 -0.0049364305960408  0.6649564787557235   T   T   T
  0.2490922067963169  0.2494236429852397  0.8332153636978934   T   T   T
  0.4986365814293397  0.0003280787524183  0.6671164901125868   T   T   T
  0.7592015228907293  0.2408508359586715  0.8331751900803013   T   T   T
 -0.0004256652615456  0.5015522463041531  0.6671163891794878   T   T   T
  0.2523450966848361  0.7477066363471402  0.8345259289519738   T   T   T
  0.5006345362263159  0.4991830799347121  0.6671359295352922   T   T   T
  0.7502972443518133  0.7505010069792103  0.8334252871621660   T   T   T
 
  0.00000000E+00  0.00000000E+00  0.00000000E+00
  0.00000000E+00  0.00000000E+00  0.00000000E+00
  0.00000000E+00  0.00000000E+00  0.00000000E+00
  0.00000000E+00  0.00000000E+00  0.00000000E+00
  0.00000000E+00  0.00000000E+00  0.00000000E+00
  0.00000000E+00  0.00000000E+00  0.00000000E+00
  0.00000000E+00  0.00000000E+00  0.00000000E+00
  0.00000000E+00  0.00000000E+00  0.00000000E+00
  0.00000000E+00  0.00000000E+00  0.00000000E+00
  0.00000000E+00  0.00000000E+00  0.00000000E+00
  0.00000000E+00  0.00000000E+00  0.00000000E+00
  0.00000000E+00  0.00000000E+00  0.00000000E+00
  0.00000000E+00  0.00000000E+00  0.00000000E+00
  0.00000000E+00  0.00000000E+00  0.00000000E+00
  0.00000000E+00  0.00000000E+00  0.00000000E+00
  0.00000000E+00  0.00000000E+00  0.00000000E+00
  0.00000000E+00  0.00000000E+00  0.00000000E+00
  0.00000000E+00  0.00000000E+00  0.00000000E+00
  0.00000000E+00  0.00000000E+00  0.00000000E+00
  0.00000000E+00  0.00000000E+00  0.00000000E+00
  0.00000000E+00  0.00000000E+00  0.00000000E+00
  0.00000000E+00  0.00000000E+00  0.00000000E+00
  0.00000000E+00  0.00000000E+00  0.00000000E+00
  0.00000000E+00  0.00000000E+00  0.00000000E+00
  0.00000000E+00  0.00000000E+00  0.00000000E+00
  0.00000000E+00  0.00000000E+00  0.00000000E+00
  0.00000000E+00  0.00000000E+00  0.00000000E+00
  0.00000000E+00  0.00000000E+00  0.00000000E+00
  0.00000000E+00  0.00000000E+00  0.00000000E+00
  0.00000000E+00  0.00000000E+00  0.00000000E+00
  0.00000000E+00  0.00000000E+00  0.00000000E+00
  0.00000000E+00  0.00000000E+00  0.00000000E+00
  0.00000000E+00  0.00000000E+00  0.00000000E+00
  0.00000000E+00  0.00000000E+00  0.00000000E+00
  0.00000000E+00  0.00000000E+00  0.00000000E+00
  0.00000000E+00  0.00000000E+00  0.00000000E+00
  0.00000000E+00  0.00000000E+00  0.00000000E+00
  0.00000000E+00  0.00000000E+00  0.00000000E+00
  0.00000000E+00  0.00000000E+00  0.00000000E+00
  0.00000000E+00  0.00000000E+00  0.00000000E+00
  0.00000000E+00  0.00000000E+00  0.00000000E+00
  0.00000000E+00  0.00000000E+00  0.00000000E+00
  0.00000000E+00  0.00000000E+00  0.00000000E+00
  0.00000000E+00  0.00000000E+00  0.00000000E+00
  0.00000000E+00  0.00000000E+00  0.00000000E+00
  0.00000000E+00  0.00000000E+00  0.00000000E+00
  0.00000000E+00  0.00000000E+00  0.00000000E+00
  0.00000000E+00  0.00000000E+00  0.00000000E+00
  0.00000000E+00  0.00000000E+00  0.00000000E+00
  0.00000000E+00  0.00000000E+00  0.00000000E+00
  0.00000000E+00  0.00000000E+00  0.00000000E+00
  0.00000000E+00  0.00000000E+00  0.00000000E+00
  0.00000000E+00  0.00000000E+00  0.00000000E+00
  0.00000000E+00  0.00000000E+00  0.00000000E+00
  0.00000000E+00  0.00000000E+00  0.00000000E+00
  0.00000000E+00  0.00000000E+00  0.00000000E+00
  0.00000000E+00  0.00000000E+00  0.00000000E+00
  0.00000000E+00  0.00000000E+00  0.00000000E+00
  0.00000000E+00  0.00000000E+00  0.00000000E+00
  0.00000000E+00  0.00000000E+00  0.00000000E+00
  0.00000000E+00  0.00000000E+00  0.00000000E+00
  0.00000000E+00  0.00000000E+00  0.00000000E+00
  0.00000000E+00  0.00000000E+00  0.00000000E+00
  0.00000000E+00  0.00000000E+00  0.00000000E+00
  0.00000000E+00  0.00000000E+00  0.00000000E+00
  0.00000000E+00  0.00000000E+00  0.00000000E+00
  0.00000000E+00  0.00000000E+00  0.00000000E+00
  0.00000000E+00  0.00000000E+00  0.00000000E+00
  0.00000000E+00  0.00000000E+00  0.00000000E+00
  0.00000000E+00  0.00000000E+00  0.00000000E+00
  0.00000000E+00  0.00000000E+00  0.00000000E+00
