ACM-1-Ovaxial                           
   1.00000000000000     
    30.7123579999999983    0.0402650000000000   -0.0055660000000000
     0.0000000000000000    7.0591249999999999   -0.0064340000000000
     0.0000000000000000    0.0000000000000000   15.9014330000000008
   H    C    O    Ti
    44    88    19     4
Selective dynamics
Direct
  0.0402210151284940  0.5459790924421987  0.2837177081410328   T   T   T
  0.9648119146646001  0.4920682203437432  0.7147710231103873   T   T   T
  0.9607692813216830  0.5231796519610259  0.2864403098252811   T   T   T
  0.0445514347903313  0.5047161483291916  0.7117732710552961   T   T   T
  0.5344440659918759  0.0011089226887061  0.2916035247547951   T   T   T
  0.4586354029435369  0.9877296035671057  0.7230011226813293   T   T   T
  0.4545965722597994  0.9932875292937328  0.2945182224433197   T   T   T
  0.5384063315963483  0.0008001967618769  0.7200256111061667   T   T   T
  0.1530252915854343  0.5536612907317295  0.4944446427275093   T   T   T
  0.8522399614587042  0.4927720713862228  0.5040021879852777   T   T   T
  0.6467967310852665  0.9939622793836358  0.5017550997218467   T   T   T
  0.3464277579113941  0.9579405237899032  0.5117580064034744   T   T   T
  0.1345257801759252  0.2810567740300688  0.1600855116704661   T   T   T
  0.6412217413367426  0.2767132596427377  0.8322151177089907   T   T   T
  0.3522112350231077  0.2289236230469054  0.8428670811388704   T   T   T
  0.1546517772545126  0.8114899083933270  0.3623399589477218   T   T   T
  0.0911686702079288  0.2893471324868132  0.2919991345201766   T   T   T
  0.3469223085103585  0.7064712091221024  0.6330624504385730   T   T   T
  0.5919826804793028  0.2721168013566691  0.7073622372302671   T   T   T
  0.4016077432561152  0.2355138655586236  0.7188123267499734   T   T   T
  0.6492994004916630  0.7431961515829605  0.6275983849497929   T   T   T
  0.9081229285077402  0.7779711318376187  0.3019434237746418   T   T   T
  0.9091181568623503  0.2264198487852699  0.7098922200630764   T   T   T
  0.1553248424875711  0.7758944819235265  0.6351718824783675   T   T   T
  0.8500946017448580  0.2452051464847407  0.3733113414034224   T   T   T
  0.6463066665573509  0.7391397098906201  0.3726498569726610   T   T   T
  0.5889085605118567  0.2734126325219968  0.3008621366776599   T   T   T
  0.8057026148552267  0.7607877288022002  0.7555178680370813   T   T   T
  0.1949829053964737  0.7584357628542326  0.7719225702556056   T   T   T
  0.8087328140278347  0.2400679295152989  0.2379639298863734   T   T   T
  0.6882521851590160  0.7333914643883523  0.2383028378481349   T   T   T
  0.6342465154128923  0.2751159023464321  0.1707788681773524   T   T   T
  0.3028354146713284  0.7028420861559262  0.2507075455898445   T   T   T
  0.8636752524696704  0.7790545827445953  0.1702469238840552   T   T   T
  0.1389956793618039  0.2096679859512738  0.8194406799470846   T   T   T
  0.1951231407421470  0.8103527848129993  0.2265835022561778   T   T   T
  0.3542911793070335  0.2453219865777331  0.1779664367268950   T   T   T
  0.6954343462809424  0.7396603567485843  0.7569470499548769   T   T   T
  0.3006397020861890  0.6920727995200192  0.7616352285718561   T   T   T
  0.8518050704743383  0.7523265385627359  0.6265752478509606   T   T   T
  0.0959787778820598  0.2344040627861357  0.6868352573304783   T   T   T
  0.3457760155657441  0.7158695224841277  0.3841607515635139   T   T   T
  0.4002822215805134  0.2520665421809316  0.3077048803199725   T   T   T
  0.8600725676313594  0.2273364754587229  0.8346088535968537   T   T   T
  0.1962341670101137  0.5236883902392445  0.1077709329359111   T   T   T
  0.8004144702162889  0.4972978745521450  0.8782600414229034   T   T   T
  0.8088919635702999  0.5039971382616141  0.1153243604894699   T   T   T
  0.1939293004231963  0.4735737529698091  0.8850734980306123   T   T   T
  0.6900640610273205  0.0026865707469185  0.1162666876198111   T   T   T
  0.2938124053254206  0.9592938889959544  0.8851715244125634   T   T   T
  0.3002782976136230  0.9668934812756070  0.1269372439074432   T   T   T
  0.7000763312323429  0.0083865360263161  0.8778400028291837   T   T   T
  0.0233733462219999  0.5332849619809910  0.3440949520150189   T   T   T
  0.9818938931863456  0.4941840787156326  0.6543058248687186   T   T   T
  0.9789631951554736  0.5225224640394341  0.3456182643395915   T   T   T
  0.0263672466286401  0.5012426677044816  0.6525735718426799   T   T   T
  0.5172788516030453  0.0070916935192016  0.3518903153486314   T   T   T
  0.4756110459851887 -0.0014089639472998  0.6626229390735958   T   T   T
  0.4728161214078098  0.0027208353513759  0.3535307292175839   T   T   T
  0.5200957176194112  0.0057676605988375  0.6609610705237202   T   T   T
  0.0260315001968980  0.5143035456681818  0.4981373430417715   T   T   T
  0.9792960990308636  0.5056659980764499  0.4999485729473238   T   T   T
  0.5197420553929126  0.0126802008451773  0.5063913569032418   T   T   T
  0.4729983041227732  0.0067353457950122  0.5081858952395146   T   T   T
  0.0949669339829330  0.5456631379871046  0.4183928906888197   T   T   T
  0.9103624486812512  0.4895890508008318  0.5797249316553481   T   T   T
  0.9090056382979487  0.5066774783060799  0.4250041315486147   T   T   T
  0.0963087097376755  0.5221894436522105  0.5729668579069070   T   T   T
  0.5887002492229967  0.0060411759918006  0.4262065040746248   T   T   T
  0.4042078705279012 -0.0199990997028576  0.5878128771010155   T   T   T
  0.4029627983120718 -0.0137726641255960  0.4329810658960008   T   T   T
  0.5900435874073066  0.0067628082389565  0.5809854811556973   T   T   T
  0.0486866609699489  0.5298388245565422  0.4195001348282299   T   T   T
  0.9566720799401143  0.4933112338361604  0.5788019849794349   T   T   T
  0.9552647777840443  0.5123576644416578  0.4227696672190064   T   T   T
  0.0500936933524292  0.5092760111295134  0.5752287034915327   T   T   T
  0.5424106052547353  0.0126219467860530  0.4274385603931809   T   T   T
  0.4503536380232168 -0.0013777390391227  0.5871111146242912   T   T   T
  0.4490743403927783  0.0025940800030731  0.4308429356272969   T   T   T
  0.5437965025534258  0.0125504816297211  0.5836381912625838   T   T   T
  0.1173447270432189  0.5457472793777706  0.4953606555664266   T   T   T
  0.8879562401365111  0.4953869116343871  0.5029601474340829   T   T   T
  0.6110913023660643  0.9983642876571737  0.5028784602835170   T   T   T
  0.3820382851805770  0.9700695755854761  0.5108607763512090   T   T   T
  0.1678406509978780  0.5447594407496004  0.1840207620637059   T   T   T
  0.8298355011112334  0.4944043857251650  0.8033290665874399   T   T   T
  0.8340130846141701  0.5083648133506149  0.1957493414741129   T   T   T
  0.1692756531455058  0.4835796567032711  0.8043646764089104   T   T   T
  0.6638737990429399  0.0037328286714921  0.1959394816505658   T   T   T
  0.3234750911463853  0.9595816080963375  0.8105907259112209   T   T   T
  0.3262772190389407  0.9727308488603220  0.2061388673906108   T   T   T
  0.6711981712509701  0.0080157771992959  0.8024826794751289   T   T   T
  0.1725475414772165  0.6947321817971200  0.2414158736941427   T   T   T
  0.1380292155217687  0.3995270429198258  0.2040390963794258   T   T   T
  0.3225742405906197  0.8120560769991270  0.7514895054986577   T   T   T
  0.6422910407169001  0.1583934863798512  0.7876724044832352   T   T   T
  0.3519289309484131  0.1123010938131433  0.7974101539477367   T   T   T
  0.6730801197584344  0.8575642506609079  0.7449102760828378   T   T   T
  0.1496772772667186  0.6948770583683253  0.3178010132743160   T   T   T
  0.1140973327603434  0.4040436755879612  0.2781018664009995   T   T   T
  0.3486893320558750  0.8205554068387417  0.6797231168411951   T   T   T
  0.6149317501126418  0.1554267600368111  0.7176573016490015   T   T   T
  0.3794389993664317  0.1156639053228247  0.7276572745987097   T   T   T
  0.6471289696573025  0.8598226908880701  0.6729525168487868   T   T   T
  0.1197315656684865  0.5506174075340755  0.3376305187100813   T   T   T
  0.8840729574814242  0.4895962184440184  0.6586439752689413   T   T   T
  0.8826739995466285  0.5103443850781512  0.3465840999792324   T   T   T
  0.1222167967223528  0.5078372572901733  0.6517437422158965   T   T   T
  0.6141331205061514  0.0056660305954741  0.3463523249944554   T   T   T
  0.3779371359301701  0.9712364155183691  0.6664857912621313   T   T   T
  0.3765001132074058 -0.0165788882959839  0.3548312227581338   T   T   T
  0.6171537683172057  0.0071755303578907  0.6584377174263459   T   T   T
  0.8540921166943800  0.6375157297317089  0.6727087828635521   T   T   T
  0.8860981151026650  0.6598988480268182  0.2883800259975786   T   T   T
  0.1180821532859058  0.3491786294608432  0.7049031844914444   T   T   T
  0.8863243020907106  0.3441786888019216  0.7191739621516973   T   T   T
  0.1512772735707414  0.6519461458340072  0.6758477949712577   T   T   T
  0.8534781802234889  0.3622474302517471  0.3285689392812597   T   T   T
  0.6431366099006506  0.8566590628621790  0.3280464231610787   T   T   T
  0.3787264367783493  0.1314917897090938  0.2956559294601839   T   T   T
  0.6109458127048627  0.1547491773810784  0.2878270359271963   T   T   T
  0.3480278534713337  0.8317206060987036  0.3385449952845496   T   T   T
  0.8281082208581673  0.6425155212508826  0.7445971933849626   T   T   T
  0.8615278703938862  0.6609194328506006  0.2146214458575244   T   T   T
  0.1419296580600050  0.3348622351239218  0.7792308772287876   T   T   T
  0.8589528592959790  0.3441770063049551  0.7893883803653347   T   T   T
  0.1736526478563857  0.6424748346230925  0.7521239369142978   T   T   T
  0.8301911870906071  0.3589036059153559  0.2533164714245144   T   T   T
  0.6668839325553710  0.8531631069219076  0.2531674952512054   T   T   T
  0.3533391561590061  0.1281497885190544  0.2230365109305207   T   T   T
  0.6360808472846126  0.1559868714804892  0.2147081564487789   T   T   T
  0.3238949798157557  0.8240767769812117  0.2643627238629040   T   T   T
  0.2682334124358961  0.4650543001636111  0.0238757629548948   T   T   T
  0.7296563298808773  0.5062909337446785  0.0270466666500946   T   T   T
  0.7692575446874587  0.0039925329874712  0.0272502737282547   T   T   T
  0.2203355483989070  0.9670349622795132  0.0354757262751106   T   T   T
  0.1980800370564102  0.3506046688699175  0.0850451050327880   T   T   T
  0.7867887139585104  0.6591247841007152  0.9032165001934069   T   T   T
  0.8014438103331750  0.6625854513993930  0.0790545529498492   T   T   T
  0.2055610669042091  0.3098813599423795  0.9113126490505949   T   T   T
  0.7902747928297912  0.3384494857779412  0.9114629787158358   T   T   T
  0.2020430916498277  0.6301789368512177  0.9221772305154804   T   T   T
  0.7973112630216650  0.3406592488060440  0.0887985294192283   T   T   T
  0.7010372510609376  0.8412759385154492  0.0865808171755188   T   T   T
  0.2832183426079150  0.1222988524320586  0.9141866436198228   T   T   T
  0.2926479516653742  0.1246655477413941  0.0907954061616138   T   T   T
  0.7126530009871677  0.8475052244846678  0.9057008459469185   T   T   T
  0.2806836985374727  0.8013645298837154  0.9143782334070746   T   T   T
  0.6987997467916830  0.1646160575399666  0.0839951124676077   T   T   T
  0.7106430122960645  0.1692289299372114  0.9086046596157621   T   T   T
  0.2883260624686719  0.8031006838483924  0.1006827121438589   T   T   T
  0.2464120101580860  0.2321799022451990  0.0077176153296616   T   T   T
  0.7503657819748052  0.7542766099280672  0.0033437208793288   T   T   T
  0.7491270047666706  0.2548512944468455  0.0065312217530766   T   T   T
  0.2405562151885009  0.7281394010582166  0.0171709519050076   T   T   T
 
  0.00000000E+00  0.00000000E+00  0.00000000E+00
  0.00000000E+00  0.00000000E+00  0.00000000E+00
  0.00000000E+00  0.00000000E+00  0.00000000E+00
  0.00000000E+00  0.00000000E+00  0.00000000E+00
  0.00000000E+00  0.00000000E+00  0.00000000E+00
  0.00000000E+00  0.00000000E+00  0.00000000E+00
  0.00000000E+00  0.00000000E+00  0.00000000E+00
  0.00000000E+00  0.00000000E+00  0.00000000E+00
  0.00000000E+00  0.00000000E+00  0.00000000E+00
  0.00000000E+00  0.00000000E+00  0.00000000E+00
  0.00000000E+00  0.00000000E+00  0.00000000E+00
  0.00000000E+00  0.00000000E+00  0.00000000E+00
  0.00000000E+00  0.00000000E+00  0.00000000E+00
  0.00000000E+00  0.00000000E+00  0.00000000E+00
  0.00000000E+00  0.00000000E+00  0.00000000E+00
  0.00000000E+00  0.00000000E+00  0.00000000E+00
  0.00000000E+00  0.00000000E+00  0.00000000E+00
  0.00000000E+00  0.00000000E+00  0.00000000E+00
  0.00000000E+00  0.00000000E+00  0.00000000E+00
  0.00000000E+00  0.00000000E+00  0.00000000E+00
  0.00000000E+00  0.00000000E+00  0.00000000E+00
  0.00000000E+00  0.00000000E+00  0.00000000E+00
  0.00000000E+00  0.00000000E+00  0.00000000E+00
  0.00000000E+00  0.00000000E+00  0.00000000E+00
  0.00000000E+00  0.00000000E+00  0.00000000E+00
  0.00000000E+00  0.00000000E+00  0.00000000E+00
  0.00000000E+00  0.00000000E+00  0.00000000E+00
  0.00000000E+00  0.00000000E+00  0.00000000E+00
  0.00000000E+00  0.00000000E+00  0.00000000E+00
  0.00000000E+00  0.00000000E+00  0.00000000E+00
  0.00000000E+00  0.00000000E+00  0.00000000E+00
  0.00000000E+00  0.00000000E+00  0.00000000E+00
  0.00000000E+00  0.00000000E+00  0.00000000E+00
  0.00000000E+00  0.00000000E+00  0.00000000E+00
  0.00000000E+00  0.00000000E+00  0.00000000E+00
  0.00000000E+00  0.00000000E+00  0.00000000E+00
  0.00000000E+00  0.00000000E+00  0.00000000E+00
  0.00000000E+00  0.00000000E+00  0.00000000E+00
  0.00000000E+00  0.00000000E+00  0.00000000E+00
  0.00000000E+00  0.00000000E+00  0.00000000E+00
  0.00000000E+00  0.00000000E+00  0.00000000E+00
  0.00000000E+00  0.00000000E+00  0.00000000E+00
  0.00000000E+00  0.00000000E+00  0.00000000E+00
  0.00000000E+00  0.00000000E+00  0.00000000E+00
  0.00000000E+00  0.00000000E+00  0.00000000E+00
  0.00000000E+00  0.00000000E+00  0.00000000E+00
  0.00000000E+00  0.00000000E+00  0.00000000E+00
  0.00000000E+00  0.00000000E+00  0.00000000E+00
  0.00000000E+00  0.00000000E+00  0.00000000E+00
  0.00000000E+00  0.00000000E+00  0.00000000E+00
  0.00000000E+00  0.00000000E+00  0.00000000E+00
  0.00000000E+00  0.00000000E+00  0.00000000E+00
  0.00000000E+00  0.00000000E+00  0.00000000E+00
  0.00000000E+00  0.00000000E+00  0.00000000E+00
  0.00000000E+00  0.00000000E+00  0.00000000E+00
  0.00000000E+00  0.00000000E+00  0.00000000E+00
  0.00000000E+00  0.00000000E+00  0.00000000E+00
  0.00000000E+00  0.00000000E+00  0.00000000E+00
  0.00000000E+00  0.00000000E+00  0.00000000E+00
  0.00000000E+00  0.00000000E+00  0.00000000E+00
  0.00000000E+00  0.00000000E+00  0.00000000E+00
  0.00000000E+00  0.00000000E+00  0.00000000E+00
  0.00000000E+00  0.00000000E+00  0.00000000E+00
  0.00000000E+00  0.00000000E+00  0.00000000E+00
  0.00000000E+00  0.00000000E+00  0.00000000E+00
  0.00000000E+00  0.00000000E+00  0.00000000E+00
  0.00000000E+00  0.00000000E+00  0.00000000E+00
  0.00000000E+00  0.00000000E+00  0.00000000E+00
  0.00000000E+00  0.00000000E+00  0.00000000E+00
  0.00000000E+00  0.00000000E+00  0.00000000E+00
  0.00000000E+00  0.00000000E+00  0.00000000E+00
  0.00000000E+00  0.00000000E+00  0.00000000E+00
  0.00000000E+00  0.00000000E+00  0.00000000E+00
  0.00000000E+00  0.00000000E+00  0.00000000E+00
  0.00000000E+00  0.00000000E+00  0.00000000E+00
  0.00000000E+00  0.00000000E+00  0.00000000E+00
  0.00000000E+00  0.00000000E+00  0.00000000E+00
  0.00000000E+00  0.00000000E+00  0.00000000E+00
  0.00000000E+00  0.00000000E+00  0.00000000E+00
  0.00000000E+00  0.00000000E+00  0.00000000E+00
  0.00000000E+00  0.00000000E+00  0.00000000E+00
  0.00000000E+00  0.00000000E+00  0.00000000E+00
  0.00000000E+00  0.00000000E+00  0.00000000E+00
  0.00000000E+00  0.00000000E+00  0.00000000E+00
  0.00000000E+00  0.00000000E+00  0.00000000E+00
  0.00000000E+00  0.00000000E+00  0.00000000E+00
  0.00000000E+00  0.00000000E+00  0.00000000E+00
  0.00000000E+00  0.00000000E+00  0.00000000E+00
  0.00000000E+00  0.00000000E+00  0.00000000E+00
  0.00000000E+00  0.00000000E+00  0.00000000E+00
  0.00000000E+00  0.00000000E+00  0.00000000E+00
  0.00000000E+00  0.00000000E+00  0.00000000E+00
  0.00000000E+00  0.00000000E+00  0.00000000E+00
  0.00000000E+00  0.00000000E+00  0.00000000E+00
  0.00000000E+00  0.00000000E+00  0.00000000E+00
  0.00000000E+00  0.00000000E+00  0.00000000E+00
  0.00000000E+00  0.00000000E+00  0.00000000E+00
  0.00000000E+00  0.00000000E+00  0.00000000E+00
  0.00000000E+00  0.00000000E+00  0.00000000E+00
  0.00000000E+00  0.00000000E+00  0.00000000E+00
  0.00000000E+00  0.00000000E+00  0.00000000E+00
  0.00000000E+00  0.00000000E+00  0.00000000E+00
  0.00000000E+00  0.00000000E+00  0.00000000E+00
  0.00000000E+00  0.00000000E+00  0.00000000E+00
  0.00000000E+00  0.00000000E+00  0.00000000E+00
  0.00000000E+00  0.00000000E+00  0.00000000E+00
  0.00000000E+00  0.00000000E+00  0.00000000E+00
  0.00000000E+00  0.00000000E+00  0.00000000E+00
  0.00000000E+00  0.00000000E+00  0.00000000E+00
  0.00000000E+00  0.00000000E+00  0.00000000E+00
  0.00000000E+00  0.00000000E+00  0.00000000E+00
  0.00000000E+00  0.00000000E+00  0.00000000E+00
  0.00000000E+00  0.00000000E+00  0.00000000E+00
  0.00000000E+00  0.00000000E+00  0.00000000E+00
  0.00000000E+00  0.00000000E+00  0.00000000E+00
  0.00000000E+00  0.00000000E+00  0.00000000E+00
  0.00000000E+00  0.00000000E+00  0.00000000E+00
  0.00000000E+00  0.00000000E+00  0.00000000E+00
  0.00000000E+00  0.00000000E+00  0.00000000E+00
  0.00000000E+00  0.00000000E+00  0.00000000E+00
  0.00000000E+00  0.00000000E+00  0.00000000E+00
  0.00000000E+00  0.00000000E+00  0.00000000E+00
  0.00000000E+00  0.00000000E+00  0.00000000E+00
  0.00000000E+00  0.00000000E+00  0.00000000E+00
  0.00000000E+00  0.00000000E+00  0.00000000E+00
  0.00000000E+00  0.00000000E+00  0.00000000E+00
  0.00000000E+00  0.00000000E+00  0.00000000E+00
  0.00000000E+00  0.00000000E+00  0.00000000E+00
  0.00000000E+00  0.00000000E+00  0.00000000E+00
  0.00000000E+00  0.00000000E+00  0.00000000E+00
  0.00000000E+00  0.00000000E+00  0.00000000E+00
  0.00000000E+00  0.00000000E+00  0.00000000E+00
  0.00000000E+00  0.00000000E+00  0.00000000E+00
  0.00000000E+00  0.00000000E+00  0.00000000E+00
  0.00000000E+00  0.00000000E+00  0.00000000E+00
  0.00000000E+00  0.00000000E+00  0.00000000E+00
  0.00000000E+00  0.00000000E+00  0.00000000E+00
  0.00000000E+00  0.00000000E+00  0.00000000E+00
  0.00000000E+00  0.00000000E+00  0.00000000E+00
  0.00000000E+00  0.00000000E+00  0.00000000E+00
  0.00000000E+00  0.00000000E+00  0.00000000E+00
  0.00000000E+00  0.00000000E+00  0.00000000E+00
  0.00000000E+00  0.00000000E+00  0.00000000E+00
  0.00000000E+00  0.00000000E+00  0.00000000E+00
  0.00000000E+00  0.00000000E+00  0.00000000E+00
  0.00000000E+00  0.00000000E+00  0.00000000E+00
  0.00000000E+00  0.00000000E+00  0.00000000E+00
  0.00000000E+00  0.00000000E+00  0.00000000E+00
  0.00000000E+00  0.00000000E+00  0.00000000E+00
  0.00000000E+00  0.00000000E+00  0.00000000E+00
  0.00000000E+00  0.00000000E+00  0.00000000E+00
  0.00000000E+00  0.00000000E+00  0.00000000E+00
  0.00000000E+00  0.00000000E+00  0.00000000E+00
  0.00000000E+00  0.00000000E+00  0.00000000E+00
  0.00000000E+00  0.00000000E+00  0.00000000E+00
