ACM-1-Ovaxial-CO2                       
   1.00000000000000     
    30.7123579999999983    0.0402650000000000   -0.0055660000000000
     0.0000000000000000    7.0591249999999999   -0.0064340000000000
     0.0000000000000000    0.0000000000000000   15.9014330000000008
   H    C    O    Ti
    44    89    21     4
Selective dynamics
Direct
  0.0372109324743905  0.5353905310172669  0.2934650654166681   T   T   T
  0.9531553651729647  0.5151481842681673  0.7189896263751363   T   T   T
  0.9572930751114960  0.5354004091218114  0.2906260244713869   T   T   T
  0.0334003126158921  0.5212511000698817  0.7219625150700103   T   T   T
  0.5410017893552516 -0.0002412148206728  0.2867840608122174   T   T   T
  0.4614475266141029  0.9962359273020038  0.7152238530954483   T   T   T
  0.4609837580934041  0.9958373079622885  0.2868953238621625   T   T   T
  0.5414443144736466  0.0008856493389331  0.7152240151837188   T   T   T
  0.1452460172152987  0.5180954458501057  0.5124528584904217   T   T   T
  0.8451244005052402  0.5077539789292963  0.5008279305600586   T   T   T
  0.6513677572784032  0.9941753833519228  0.5005097241213154   T   T   T
  0.3512750609560935  0.9793296769038429  0.5015681255635367   T   T   T
  0.1299803389113574  0.1876600329108244  0.1915558634165802   T   T   T
  0.6417377779315956  0.2787315290359927  0.8301195557983435   T   T   T
  0.3624313388479050  0.2634459347401874  0.8320043362551236   T   T   T
  0.1609146302712994  0.7151488783082388  0.3924905194444712   T   T   T
  0.0782071330675923  0.2566877889978267  0.3098741580045645   T   T   T
  0.3520446386315678  0.7296456841163275  0.6273779914841027   T   T   T
  0.5940949344044609  0.2736492024119046  0.7022049207894826   T   T   T
  0.4083965029511346  0.2638736882144381  0.7017216631711067   T   T   T
  0.6518839975627047  0.7426119476585170  0.6266475944976266   T   T   T
  0.9031491013887279  0.7925849306334012  0.3019669421434141   T   T   T
  0.9027601510706196  0.2339820232259014  0.7034855392032413   T   T   T
  0.1470275909994641  0.7699332560543022  0.6358668076038624   T   T   T
  0.8468517807120197  0.2571629070444196  0.3746574758234498   T   T   T
  0.6501560037946913  0.7391996900774436  0.3699660292564529   T   T   T
  0.5931992207931445  0.2777780898056030  0.3033759339241435   T   T   T
  0.7981413339000161  0.7601618721874988  0.7590025478963919   T   T   T
  0.1960956679876691  0.7486481326458518  0.7617892268345682   T   T   T
  0.8064109740254933  0.2443105553365317  0.2376264026244315   T   T   T
  0.6895017610393133  0.7319317964483844  0.2314445291953349   T   T   T
  0.6361809502604943  0.2779462138370933  0.1689637603027539   T   T   T
  0.3070957636650289  0.7134679843720152  0.2460766417927908   T   T   T
  0.8592622763395393  0.7865232581469961  0.1687719578744453   T   T   T
  0.1380848214235274  0.2166089363722548  0.8298763801532977   T   T   T
  0.2137270182510769  0.6393579312513772  0.2764465858833316   T   T   T
  0.3573904471400922  0.2558737484817637  0.1713577249659443   T   T   T
  0.6963922578359187  0.7399813090405808  0.7587936123596827   T   T   T
  0.3092933354026053  0.7217552067823834  0.7618443013099160   T   T   T
  0.8423354472953202  0.7580120792427709  0.6262746179442074   T   T   T
  0.0861362340193444  0.2440632206723492  0.7084843010752868   T   T   T
  0.3522488449870484  0.7251442174961655  0.3776301987374576   T   T   T
  0.4058764409567395  0.2607262030392126  0.2982974447536262   T   T   T
  0.8553629278568025  0.2281895461483968  0.8320408444692293   T   T   T
  0.2056022328427846  0.3633730983129959  0.1630139178817963   T   T   T
  0.7972007491755857  0.4969983019493802  0.8792708133847401   T   T   T
  0.8067846362377835  0.5054420136683984  0.1147268756581504   T   T   T
  0.2009523483677466  0.4714490874763267  0.8738734585534806   T   T   T
  0.6885462729197436  0.0018602482892603  0.1119266881914288   T   T   T
  0.3072076385875461  0.9878178741690568  0.8819046644967009   T   T   T
  0.3022048421092134  0.9767421005350264  0.1249338293266827   T   T   T
  0.6997071358956227  0.0102871877016636  0.8773729022424854   T   T   T
  0.0189506720627458  0.5281662289012771  0.3524981414912660   T   T   T
  0.9715975876889383  0.5121355808766205  0.6600858755189601   T   T   T
  0.9744815284850099  0.5300235377068893  0.3508850152540058   T   T   T
  0.0160583069310868  0.5153368465953243  0.6618397513349646   T   T   T
  0.5232561966841001  0.0079832797017211  0.3463609730360259   T   T   T
  0.4791790132328341  0.0064372065489093  0.6556982734614062   T   T   T
  0.4787970051834528  0.0058346974972142  0.3463764538862829   T   T   T
  0.5236246899562763  0.0090299840929985  0.6557004669772976   T   T   T
  0.0185315791463666  0.5177287368451929  0.5070665845347708   T   T   T
  0.9720254333965417  0.5174943246289212  0.5052823513280941   T   T   T
  0.5244650895733609  0.0162760643091649  0.5010434413049888   T   T   T
  0.4779472230296523  0.0139530204829692  0.5010011664174018   T   T   T
  0.0885716099649294  0.5176001325399849  0.4329215010980748   T   T   T
  0.9021016611537687  0.5032250651360459  0.5795566033814696   T   T   T
  0.9033218515930093  0.5228535815081083  0.4258677643874194   T   T   T
  0.0870154441691151  0.5179850997321127  0.5868856394327846   T   T   T
  0.5936822092185020  0.0073035372046165  0.4239794356509859   T   T   T
  0.4088711909703641  0.9982095669700768  0.5780615618056991   T   T   T
  0.4085645175598813  0.9971999007966156  0.4241208154755971   T   T   T
  0.5938949971898007  0.0074610360357842  0.5778669319133644   T   T   T
  0.0424479337165009  0.5198415187811174  0.4298831436909783   T   T   T
  0.9481789991440934  0.5083104949116863  0.5824235657990356   T   T   T
  0.9495009334108927  0.5251773997686165  0.4265831355042627   T   T   T
  0.0409331311241717  0.5142937716521433  0.5860408566904856   T   T   T
  0.5475615832429159  0.0143990415789740  0.4229963887862861   T   T   T
  0.4549096434000867  0.0101560251082935  0.5790524219768970   T   T   T
  0.4546208247526832  0.0096479434111210  0.4230394040114100   T   T   T
  0.5477837213070966  0.0151050951411810  0.5790048094182842   T   T   T
  0.1095839993140325  0.5237822148463701  0.5108302900437505   T   T   T
  0.8808222031281221  0.5110647085038683  0.5019746178734410   T   T   T
  0.6156634481353085  0.9988062576488934  0.5007644674270134   T   T   T
  0.3869383306674899  0.9873307835636945  0.5012802161588487   T   T   T
  0.1747160354814367  0.4093212009567169  0.2285413654783690   T   T   T
  0.8244860881590413  0.4947180162528546  0.8025767495297272   T   T   T
  0.8310889971584928  0.5136770997257406  0.1954953553499355   T   T   T
  0.1700478573750532  0.4806677076035764  0.8019331354719890   T   T   T
  0.6646068563719755  0.0039788057626687  0.1928432984351386   T   T   T
  0.3338238858680177  0.9914930353551464  0.8043884905944687   T   T   T
  0.3296571062841023  0.9842318235593256  0.2018081459656134   T   T   T
  0.6716032961602348  0.0093026429746167  0.8016001454466645   T   T   T
  0.1836802415770223  0.5579112436313974  0.2845425572269177   T   T   T
  0.1361788369304499  0.3025730616721455  0.2363598016158916   T   T   T
  0.3308035566348543  0.8408589908057813  0.7472465780437458   T   T   T
  0.6431110773672022  0.1602969847746001  0.7856928360181807   T   T   T
  0.3611164273511795  0.1455165316462465  0.7873375907797312   T   T   T
  0.6742723364837557  0.8576438616928496  0.7449472035669247   T   T   T
  0.1543981428198346  0.5990559143352528  0.3485194789833785   T   T   T
  0.1074094235468446  0.3433648811194381  0.3010072198877229   T   T   T
  0.3546496390428764  0.8456548749643370  0.6729343796737248   T   T   T
  0.6168236088387159  0.1571181182938150  0.7143722905283960   T   T   T
  0.3863803853202329  0.1455025598897951  0.7147868018740536   T   T   T
  0.6493737450781262  0.8593526009314240  0.6718532244993004   T   T   T
  0.1162304201532378  0.4908833220736052  0.3583951537831188   T   T   T
  0.8755990844562866  0.4968973062562443  0.6568885341978336   T   T   T
  0.8782272265148309  0.5238917586034253  0.3465052055244463   T   T   T
  0.1133036092369449  0.5088974021269231  0.6644573626844323   T   T   T
  0.6188204855149086  0.0078563990991298  0.3448591455421925   T   T   T
  0.3832640635228344  0.9962313375924343  0.6565091394728731   T   T   T
  0.3822487978168705  0.9929990137714844  0.3462995287446344   T   T   T
  0.6199517465725363  0.0077940038759274  0.6560049183978305   T   T   T
  0.8454133204666995  0.6427324903923879  0.6719759352746014   T   T   T
  0.8817339067724241  0.6725061199040751  0.2880646304095374   T   T   T
  0.1103226358870079  0.3550188635347670  0.7201749758073506   T   T   T
  0.8794583518298339  0.3485512729441575  0.7153881279147860   T   T   T
  0.1447152111562912  0.6496359822566312  0.6791586123442832   T   T   T
  0.8499179569151242  0.3725597146081582  0.3289949317347950   T   T   T
  0.6468376070248902  0.8566581349383525  0.3254110044298069   T   T   T
  0.3839440183309102  0.1409612996992907  0.2872470837548604   T   T   T
  0.6147879618831952  0.1591225561807671  0.2878942697818761   T   T   T
  0.3536415256016245  0.8410571589987222  0.3319209280633704   T   T   T
  0.8207516982494042  0.6442533160574884  0.7451950951028739   T   T   T
  0.8576391929134936  0.6696217218942027  0.2138831162436129   T   T   T
  0.1391017533144141  0.3388542760469343  0.7875716911862379   T   T   T
  0.8533712188728760  0.3450334840439661  0.7869640252645257   T   T   T
  0.1722354474291559  0.6377019101455877  0.7482458839903773   T   T   T
  0.8272603948512418  0.3649775402399246  0.2532923918281775   T   T   T
  0.6688387591207868  0.8521707448659053  0.2489180936287682   T   T   T
  0.3572127591176907  0.1388125664061652  0.2164870846906563   T   T   T
  0.6382294303293462  0.1593951424046557  0.2131307659912486   T   T   T
  0.3282701892059568  0.8345039245287469  0.2595040312988891   T   T   T
  0.1595060830074138  0.8353994564967349  0.0599197394236039   T   T   T
  0.2578568522736787  0.4691510331400842  0.0264920885254822   T   T   T
  0.7282486748493973  0.5058804829849384  0.0271860535393170   T   T   T
  0.7680002908878929  0.0040253162014895  0.0283096717388946   T   T   T
  0.2236056605365251  0.9798559765939472  0.0038231441153716   T   T   T
  0.2013694324266696  0.2531428170375732  0.1051932423469909   T   T   T
  0.7838356643254479  0.6589069312551001  0.9040794512585438   T   T   T
  0.7998180144839926  0.6630490181494271  0.0774035302466729   T   T   T
  0.2093974878986193  0.3077959250142561  0.9052715047803169   T   T   T
  0.7886948239330097  0.3380879988895400  0.9136899528815658   T   T   T
  0.2166543236268374  0.6291602655226675  0.8971804738781273   T   T   T
  0.7954429777249107  0.3410864748540606  0.0894188400427605   T   T   T
  0.6988468474218380  0.8400724981456236  0.0820422931261638   T   T   T
  0.2951148984624198  0.1493995311071978  0.9117220960145691   T   T   T
  0.2944544671314757  0.1351763182528093  0.0878790580891533   T   T   T
  0.7116662310137724  0.8494107177527465  0.9058986813748108   T   T   T
  0.2976694556149526  0.8276714730346204  0.9127783982617156   T   T   T
  0.6964584583666640  0.1632468471639044  0.0787016958013753   T   T   T
  0.7103937482869768  0.1715445715649746  0.9073188249774282   T   T   T
  0.2885125926066776  0.8161635675668051  0.1010963881536274   T   T   T
  0.1801169821636493  0.6954267821124784  0.0720478147103115   T   T   T
  0.1339848727468068  0.9583897172457412  0.0533202673024664   T   T   T
  0.2507435322820246  0.2161071602425551 -0.0009985316638394   T   T   T
  0.7485573540171037  0.7546821951266633  0.0035768237915740   T   T   T
  0.7476100797313544  0.2544578390224261  0.0069058882772453   T   T   T
  0.2523605090099785  0.7321065969234516  0.9971175461301071   T   T   T
 
  0.00000000E+00  0.00000000E+00  0.00000000E+00
  0.00000000E+00  0.00000000E+00  0.00000000E+00
  0.00000000E+00  0.00000000E+00  0.00000000E+00
  0.00000000E+00  0.00000000E+00  0.00000000E+00
  0.00000000E+00  0.00000000E+00  0.00000000E+00
  0.00000000E+00  0.00000000E+00  0.00000000E+00
  0.00000000E+00  0.00000000E+00  0.00000000E+00
  0.00000000E+00  0.00000000E+00  0.00000000E+00
  0.00000000E+00  0.00000000E+00  0.00000000E+00
  0.00000000E+00  0.00000000E+00  0.00000000E+00
  0.00000000E+00  0.00000000E+00  0.00000000E+00
  0.00000000E+00  0.00000000E+00  0.00000000E+00
  0.00000000E+00  0.00000000E+00  0.00000000E+00
  0.00000000E+00  0.00000000E+00  0.00000000E+00
  0.00000000E+00  0.00000000E+00  0.00000000E+00
  0.00000000E+00  0.00000000E+00  0.00000000E+00
  0.00000000E+00  0.00000000E+00  0.00000000E+00
  0.00000000E+00  0.00000000E+00  0.00000000E+00
  0.00000000E+00  0.00000000E+00  0.00000000E+00
  0.00000000E+00  0.00000000E+00  0.00000000E+00
  0.00000000E+00  0.00000000E+00  0.00000000E+00
  0.00000000E+00  0.00000000E+00  0.00000000E+00
  0.00000000E+00  0.00000000E+00  0.00000000E+00
  0.00000000E+00  0.00000000E+00  0.00000000E+00
  0.00000000E+00  0.00000000E+00  0.00000000E+00
  0.00000000E+00  0.00000000E+00  0.00000000E+00
  0.00000000E+00  0.00000000E+00  0.00000000E+00
  0.00000000E+00  0.00000000E+00  0.00000000E+00
  0.00000000E+00  0.00000000E+00  0.00000000E+00
  0.00000000E+00  0.00000000E+00  0.00000000E+00
  0.00000000E+00  0.00000000E+00  0.00000000E+00
  0.00000000E+00  0.00000000E+00  0.00000000E+00
  0.00000000E+00  0.00000000E+00  0.00000000E+00
  0.00000000E+00  0.00000000E+00  0.00000000E+00
  0.00000000E+00  0.00000000E+00  0.00000000E+00
  0.00000000E+00  0.00000000E+00  0.00000000E+00
  0.00000000E+00  0.00000000E+00  0.00000000E+00
  0.00000000E+00  0.00000000E+00  0.00000000E+00
  0.00000000E+00  0.00000000E+00  0.00000000E+00
  0.00000000E+00  0.00000000E+00  0.00000000E+00
  0.00000000E+00  0.00000000E+00  0.00000000E+00
  0.00000000E+00  0.00000000E+00  0.00000000E+00
  0.00000000E+00  0.00000000E+00  0.00000000E+00
  0.00000000E+00  0.00000000E+00  0.00000000E+00
  0.00000000E+00  0.00000000E+00  0.00000000E+00
  0.00000000E+00  0.00000000E+00  0.00000000E+00
  0.00000000E+00  0.00000000E+00  0.00000000E+00
  0.00000000E+00  0.00000000E+00  0.00000000E+00
  0.00000000E+00  0.00000000E+00  0.00000000E+00
  0.00000000E+00  0.00000000E+00  0.00000000E+00
  0.00000000E+00  0.00000000E+00  0.00000000E+00
  0.00000000E+00  0.00000000E+00  0.00000000E+00
  0.00000000E+00  0.00000000E+00  0.00000000E+00
  0.00000000E+00  0.00000000E+00  0.00000000E+00
  0.00000000E+00  0.00000000E+00  0.00000000E+00
  0.00000000E+00  0.00000000E+00  0.00000000E+00
  0.00000000E+00  0.00000000E+00  0.00000000E+00
  0.00000000E+00  0.00000000E+00  0.00000000E+00
  0.00000000E+00  0.00000000E+00  0.00000000E+00
  0.00000000E+00  0.00000000E+00  0.00000000E+00
  0.00000000E+00  0.00000000E+00  0.00000000E+00
  0.00000000E+00  0.00000000E+00  0.00000000E+00
  0.00000000E+00  0.00000000E+00  0.00000000E+00
  0.00000000E+00  0.00000000E+00  0.00000000E+00
  0.00000000E+00  0.00000000E+00  0.00000000E+00
  0.00000000E+00  0.00000000E+00  0.00000000E+00
  0.00000000E+00  0.00000000E+00  0.00000000E+00
  0.00000000E+00  0.00000000E+00  0.00000000E+00
  0.00000000E+00  0.00000000E+00  0.00000000E+00
  0.00000000E+00  0.00000000E+00  0.00000000E+00
  0.00000000E+00  0.00000000E+00  0.00000000E+00
  0.00000000E+00  0.00000000E+00  0.00000000E+00
  0.00000000E+00  0.00000000E+00  0.00000000E+00
  0.00000000E+00  0.00000000E+00  0.00000000E+00
  0.00000000E+00  0.00000000E+00  0.00000000E+00
  0.00000000E+00  0.00000000E+00  0.00000000E+00
  0.00000000E+00  0.00000000E+00  0.00000000E+00
  0.00000000E+00  0.00000000E+00  0.00000000E+00
  0.00000000E+00  0.00000000E+00  0.00000000E+00
  0.00000000E+00  0.00000000E+00  0.00000000E+00
  0.00000000E+00  0.00000000E+00  0.00000000E+00
  0.00000000E+00  0.00000000E+00  0.00000000E+00
  0.00000000E+00  0.00000000E+00  0.00000000E+00
  0.00000000E+00  0.00000000E+00  0.00000000E+00
  0.00000000E+00  0.00000000E+00  0.00000000E+00
  0.00000000E+00  0.00000000E+00  0.00000000E+00
  0.00000000E+00  0.00000000E+00  0.00000000E+00
  0.00000000E+00  0.00000000E+00  0.00000000E+00
  0.00000000E+00  0.00000000E+00  0.00000000E+00
  0.00000000E+00  0.00000000E+00  0.00000000E+00
  0.00000000E+00  0.00000000E+00  0.00000000E+00
  0.00000000E+00  0.00000000E+00  0.00000000E+00
  0.00000000E+00  0.00000000E+00  0.00000000E+00
  0.00000000E+00  0.00000000E+00  0.00000000E+00
  0.00000000E+00  0.00000000E+00  0.00000000E+00
  0.00000000E+00  0.00000000E+00  0.00000000E+00
  0.00000000E+00  0.00000000E+00  0.00000000E+00
  0.00000000E+00  0.00000000E+00  0.00000000E+00
  0.00000000E+00  0.00000000E+00  0.00000000E+00
  0.00000000E+00  0.00000000E+00  0.00000000E+00
  0.00000000E+00  0.00000000E+00  0.00000000E+00
  0.00000000E+00  0.00000000E+00  0.00000000E+00
  0.00000000E+00  0.00000000E+00  0.00000000E+00
  0.00000000E+00  0.00000000E+00  0.00000000E+00
  0.00000000E+00  0.00000000E+00  0.00000000E+00
  0.00000000E+00  0.00000000E+00  0.00000000E+00
  0.00000000E+00  0.00000000E+00  0.00000000E+00
  0.00000000E+00  0.00000000E+00  0.00000000E+00
  0.00000000E+00  0.00000000E+00  0.00000000E+00
  0.00000000E+00  0.00000000E+00  0.00000000E+00
  0.00000000E+00  0.00000000E+00  0.00000000E+00
  0.00000000E+00  0.00000000E+00  0.00000000E+00
  0.00000000E+00  0.00000000E+00  0.00000000E+00
  0.00000000E+00  0.00000000E+00  0.00000000E+00
  0.00000000E+00  0.00000000E+00  0.00000000E+00
  0.00000000E+00  0.00000000E+00  0.00000000E+00
  0.00000000E+00  0.00000000E+00  0.00000000E+00
  0.00000000E+00  0.00000000E+00  0.00000000E+00
  0.00000000E+00  0.00000000E+00  0.00000000E+00
  0.00000000E+00  0.00000000E+00  0.00000000E+00
  0.00000000E+00  0.00000000E+00  0.00000000E+00
  0.00000000E+00  0.00000000E+00  0.00000000E+00
  0.00000000E+00  0.00000000E+00  0.00000000E+00
  0.00000000E+00  0.00000000E+00  0.00000000E+00
  0.00000000E+00  0.00000000E+00  0.00000000E+00
  0.00000000E+00  0.00000000E+00  0.00000000E+00
  0.00000000E+00  0.00000000E+00  0.00000000E+00
  0.00000000E+00  0.00000000E+00  0.00000000E+00
  0.00000000E+00  0.00000000E+00  0.00000000E+00
  0.00000000E+00  0.00000000E+00  0.00000000E+00
  0.00000000E+00  0.00000000E+00  0.00000000E+00
  0.00000000E+00  0.00000000E+00  0.00000000E+00
  0.00000000E+00  0.00000000E+00  0.00000000E+00
  0.00000000E+00  0.00000000E+00  0.00000000E+00
  0.00000000E+00  0.00000000E+00  0.00000000E+00
  0.00000000E+00  0.00000000E+00  0.00000000E+00
  0.00000000E+00  0.00000000E+00  0.00000000E+00
  0.00000000E+00  0.00000000E+00  0.00000000E+00
  0.00000000E+00  0.00000000E+00  0.00000000E+00
  0.00000000E+00  0.00000000E+00  0.00000000E+00
  0.00000000E+00  0.00000000E+00  0.00000000E+00
  0.00000000E+00  0.00000000E+00  0.00000000E+00
  0.00000000E+00  0.00000000E+00  0.00000000E+00
  0.00000000E+00  0.00000000E+00  0.00000000E+00
  0.00000000E+00  0.00000000E+00  0.00000000E+00
  0.00000000E+00  0.00000000E+00  0.00000000E+00
  0.00000000E+00  0.00000000E+00  0.00000000E+00
  0.00000000E+00  0.00000000E+00  0.00000000E+00
  0.00000000E+00  0.00000000E+00  0.00000000E+00
  0.00000000E+00  0.00000000E+00  0.00000000E+00
  0.00000000E+00  0.00000000E+00  0.00000000E+00
  0.00000000E+00  0.00000000E+00  0.00000000E+00
  0.00000000E+00  0.00000000E+00  0.00000000E+00
  0.00000000E+00  0.00000000E+00  0.00000000E+00
  0.00000000E+00  0.00000000E+00  0.00000000E+00
  0.00000000E+00  0.00000000E+00  0.00000000E+00
  0.00000000E+00  0.00000000E+00  0.00000000E+00
  0.00000000E+00  0.00000000E+00  0.00000000E+00
