MIL-125-NH2-PBE                         
   1.00000000000000     
    19.0415080000000003    0.0000000000000000    0.0000000000000000
     0.0000000000000000   19.0312209999999986    0.0000000000000000
     0.0000000000000000    0.0000000000000000   18.1449719999999992
   H    C    N    O    Ti
    68    96    12    72    16
Selective dynamics
Direct
  0.5365727615397083  0.1765788524261397  0.5101338265389529   T   T   T
  0.5701672302886722  0.8916159836367559  0.5079258386366662   T   T   T
  0.5786320359442818  0.5807768858105726  0.9677329076597840   T   T   T
  0.5832014342877130  0.4168963305899591  0.9641404929638920   T   T   T
  0.6092004955273121  0.0673764338945144  0.9882388538759989   T   T   T
  0.6124853497758245  0.9349156961127268  0.9877001232638984   T   T   T
  0.6200255851803060  0.1348609413329695  0.5101366647974066   T   T   T
  0.6216423697695582  0.8116738806318134  0.8689104963785860   T   T   T
  0.6220203533612185  0.8716980056116029  0.7939924475425236   T   T   T
  0.0632219526585949  0.3860294596832352  0.9887020711769975   T   T   T
  0.6413317700299698  0.8915503496712176  0.2806519852439734   T   T   T
  0.6466176541274427  0.8070688082975732  0.1847357503666142   T   T   T
  0.6491148991964550  0.1923390219847406  0.1917359006861611   T   T   T
  0.6491290614699504  0.1985675876934063  0.8106047018392820   T   T   T
  0.6905042272977879  0.1528142291547256  0.6873992647305059   T   T   T
  0.6983358352445534  0.8895542959009206  0.3578617039672828   T   T   T
  0.6973789988520855  0.1505873668093484  0.3136880311876693   T   T   T
  0.6979952526435315  0.8594877793623582  0.6912332379190386   T   T   T
  0.0701792745757804  0.6122030236911667  0.9902050881304436   T   T   T
  0.0803403291907005  0.0812917164816952  0.5343633247374179   T   T   T
  0.7988531586019427  0.6465060267251451  0.8094614834569080   T   T   T
  0.8066168700856184  0.3544670226603815  0.1863058176116781   T   T   T
  0.8074945204909786  0.6482855676333259  0.1914154914410871   T   T   T
  0.8125296159132606  0.3777450256013265  0.8692737777923228   T   T   T
  0.0830481411630086  0.9212179806833051  0.5338774390797046   T   T   T
  0.8455157332481354  0.6883118900114235  0.6868230758216151   T   T   T
  0.8491714174337144  0.6967162313261582  0.3132657704024262   T   T   T
  0.8598655457856152  0.3024269200606795  0.6909981352325660   T   T   T
  0.8717273799140068  0.3784269567051895  0.7936697253422188   T   T   T
  0.8796121259733558  0.6341565737351390  0.9914021852097505   T   T   T
  0.8860449714580256  0.5632214070898870  0.5090236219191709   T   T   T
  0.8888044485086822  0.3030159261282738  0.3596508496917281   T   T   T
  0.8904714745034696  0.3603220641058696  0.2827059691538533   T   T   T
  0.8918267617441881  0.4308005437057772  0.5082461537503582   T   T   T
  0.9198683065799451  0.0808436836646000  0.5340039379242122   T   T   T
  0.9191046159017836  0.9171618792552841  0.5352045125328924   T   T   T
  0.9308620196642110  0.3911420278392263  0.9891043791973654   T   T   T
  0.9628695593506430  0.6763016012052069  0.9919668860628864   T   T   T
  0.1072250925949307  0.6418131353652272  0.2813079774855583   T   T   T
  0.1095751521570084  0.6989423401355840  0.3583379751354272   T   T   T
  0.1119866456936176  0.5714481066791396  0.5075206401099671   T   T   T
  0.1284669086293693  0.6216797739164829  0.7936576805991612   T   T   T
  0.1350951283699849  0.3809451225956060  0.5070062384323829   T   T   T
  0.1397176289034200  0.6987856648024087  0.6916224374801428   T   T   T
  0.1511713951321441  0.3025299340220166  0.3130234471201690   T   T   T
  0.1524273695307783  0.3099951559000877  0.6881585298546733   T   T   T
  0.1766349061703055  0.4645336158549941  0.5069942961201327   T   T   T
  0.1878870523430732  0.6220152049227970  0.8690225771130415   T   T   T
  0.1928454573002013  0.3507351970994443  0.1910640734373771   T   T   T
  0.1922724137455165  0.6460617931171788  0.1856072461142480   T   T   T
  0.1992703861606847  0.3516911111519996  0.8107697752558364   T   T   T
  0.3044092715964385  0.1426938075014513  0.6888379671976799   T   T   T
  0.3031319459778932  0.8485789094506910  0.3138536589251667   T   T   T
  0.3018725114449617  0.1098458072174200  0.3580226577321636   T   T   T
  0.3115303366497520  0.8454750494034131  0.6865262076183466   T   T   T
  0.3239676194066543  0.0389539717065943  0.9972565011431053   T   T   T
  0.3513608430061108  0.8065823197574120  0.1919206307232452   T   T   T
  0.3529324695766388  0.7992375970474506  0.8096049141923818   T   T   T
  0.3542444063208995  0.1924734219004496  0.1851710354399963   T   T   T
  0.3588816915841623  0.1075986060014362  0.2809321095729513   T   T   T
  0.3668248729626394  0.1217540958201231  0.9968829859832178   T   T   T
  0.3827248581876778  0.1927000101588359  0.8649062482960836   T   T   T
  0.3835971302517006  0.1331303774395500  0.7895658830795801   T   T   T
  0.3865075359578210  0.9309741624177107  0.9947238449827077   T   T   T
  0.4176498853264181  0.5814775504362362  0.9649679492562939   T   T   T
  0.4190794763593735  0.4219607532861099  0.9692180569562475   T   T   T
  0.4295106886272849  0.1118160838620553  0.5102077412863009   T   T   T
  0.4378091426979010  0.8857056113183224  0.5080984088669998   T   T   T
  0.5353595149741909  0.0684334776877515  0.5096360999978232   T   T   T
  0.5382704662713255  0.9394797143870967  0.5084412538522537   T   T   T
  0.5607617386698355  0.0364022999639124  0.9896792624276493   T   T   T
  0.5628414937137547  0.9637375615905511  0.9891736669982315   T   T   T
  0.5744316309692560  0.0041763605070205  0.5089330521093187   T   T   T
  0.0639258993253772  0.5397411099403993  0.5076940363961984   T   T   T
  0.6515394305354346  0.0031081681735619  0.5085281474644836   T   T   T
  0.0686012185348076  0.4655605288496923  0.5070781787882354   T   T   T
  0.6915134151486438  0.7835657440585249  0.2133931838580487   T   T   T
  0.6941156946623439  0.2178470692395703  0.2178667959322742   T   T   T
  0.6931741471819896  0.7907502345236197  0.7871336693410879   T   T   T
  0.6988936758424976  0.3026207848225692  0.1114231081223192   T   T   T
  0.6954434583570275  0.2206457915591490  0.7833559162395196   T   T   T
  0.6979249778930732  0.7006572515934747  0.8903786015424553   T   T   T
  0.6974077023132860  0.6982270292928509  0.1106531259773574   T   T   T
  0.7023693606479321  0.3000462734852475  0.8911608155224029   T   T   T
  0.7138518873394732  0.8116726264764265  0.2816806290030325   T   T   T
  0.7177276008533293  0.1955352991552146  0.7157874297778184   T   T   T
  0.7206048964684648  0.1954215223916635  0.2847925030719249   T   T   T
  0.7198133564633405  0.8126885875995938  0.7180027246265682   T   T   T
  0.7229571368426774  0.7290342002173770  0.8197516035551021   T   T   T
  0.7263267983073106  0.2756848987618664  0.1828977931167663   T   T   T
  0.7247906083822826  0.7261298170846627  0.1817884967849037   T   T   T
  0.7306497785012674  0.2755317477648619  0.8203269222103556   T   T   T
  0.0731527729310757  0.4995625603984727  0.9890400074513171   T   T   T
  0.7720399794936325  0.7786444080191492  0.3177125961558251   T   T   T
  0.7734267012804199  0.7763740210121316  0.6829155147171099   T   T   T
  0.7775174733535860  0.2261477212452599  0.6829755925699464   T   T   T
  0.7775615001295693  0.6934530904443250  0.7826797189058230   T   T   T
  0.7785326113668917  0.2284887110036302  0.3187982831648963   T   T   T
  0.7832817624764732  0.3094050069415831  0.2148577578446419   T   T   T
  0.7823597303804118  0.6937595884330435  0.2170911055950062   T   T   T
  0.7917656438589113  0.3061749035583903  0.7874131282917015   T   T   T
  0.7996169918939577  0.8040748895218938  0.3884136528638906   T   T   T
  0.8035656488063844  0.2002595280463209  0.6103492713229783   T   T   T
  0.7998106266685453  0.8026041319068313  0.6104775365998332   T   T   T
  0.8032184279812613  0.7159762635508302  0.7154086514727026   T   T   T
  0.8047768194470247  0.7203553037251172  0.2840197472957922   T   T   T
  0.8040937541523948  0.2004983826536495  0.3891847312296705   T   T   T
  0.8112445070044594  0.2871213438852087  0.2832143310694939   T   T   T
  0.8134851446046307  0.2800403759690240  0.7180096742911760   T   T   T
  0.8487948521081183  0.5023007293884227  0.9897000307276500   T   T   T
  0.9259079887072975  0.5037078103551104  0.9894830329038583   T   T   T
  0.9361919146614753  0.5352634916830377  0.5085338224227056   T   T   T
  0.9397022951099931  0.4626567188030205  0.5080602879072552   T   T   T
  0.9624508011393543  0.4392256884688316  0.9890485939224618   T   T   T
  0.9646105938353884  0.5682155653155364  0.9901391285214413   T   T   T
  0.9982605643702049  0.6520278633136271  0.5086482483632067   T   T   T
  0.9994636585591217  0.5737921771031560  0.5084490170557070   T   T   T
  0.1512920411203640  0.4986137079015598  0.9893700752156201   T   T   T
  0.1866427906726660  0.7203957571899904  0.7183094389335618   T   T   T
  0.1878679245010062  0.7134239501364491  0.2825080118527021   T   T   T
  0.1957353875829318  0.7995578977501084  0.3888955402496979   T   T   T
  0.1959400844056385  0.2832858765956485  0.7157339891201089   T   T   T
  0.1957979471666727  0.2790588886131745  0.2840123133032509   T   T   T
  0.2003620642838236  0.1976392120555536  0.6098955391122849   T   T   T
  0.1971065910662537  0.8000863391930669  0.6105676339211882   T   T   T
  0.2008329761694920  0.1955832202235345  0.3885347838646191   T   T   T
  0.2083555067988640  0.6940376629818822  0.7875872679244471   T   T   T
  0.2181881057832182  0.3055390897894908  0.2170431227353571   T   T   T
  0.2158255580818793  0.6909718364260796  0.2142340680564910   T   T   T
  0.2210477080434625  0.7716502758053968  0.3183108335589018   T   T   T
  0.2216863294875569  0.3057962449680682  0.7830068552186999   T   T   T
  0.2232209128219958  0.7737444100128208  0.6830120575001231   T   T   T
  0.2268765658038017  0.2240179167447342  0.6822225215083773   T   T   T
  0.2286512555862577  0.2209521174662776  0.3179047850316978   T   T   T
  0.2701323479915688  0.7237300581587639  0.8200543624128951   T   T   T
  0.2758386466091929  0.2732097581556461  0.1819272735004765   T   T   T
  0.2732689158999477  0.7241507760787528  0.1825411808007031   T   T   T
  0.2776435682357468  0.2713515591258628  0.8189561431822999   T   T   T
  0.2818435701970641  0.1887869536327217  0.7162693921010773   T   T   T
  0.2793979145624120  0.8042122291482282  0.2846202102894684   T   T   T
  0.2836682517972084  0.8034382982728321  0.7153460480171708   T   T   T
  0.2869542620017779  0.1879627361530481  0.2820760280654731   T   T   T
  0.2984982170853736  0.6988593174344926  0.8907682373615395   T   T   T
  0.3028993309122530  0.3010168092160226  0.1106058908087357   T   T   T
  0.3009311042049575  0.6969045230485785  0.1112864818597037   T   T   T
  0.3025502748344068  0.2996169365618188  0.8898214864900001   T   T   T
  0.3086917543557742  0.2108388270988280  0.7852230988501109   T   T   T
  0.3059926349234418  0.7780212366087124  0.7827871891009925   T   T   T
  0.3058740958321359  0.7816282384648254  0.2177255664491290   T   T   T
  0.3092375224211261  0.2159162281831328  0.2137054604250956   T   T   T
  0.0033649512535109  0.3493183942354623  0.5072140943218146   T   T   T
  0.3489830274998160  0.9979794362441549  0.5088918539727382   T   T   T
  0.0350179193259188  0.4360504330961966  0.9888280264670648   T   T   T
  0.0388002336874643  0.5639150846488330  0.9896986053205987   T   T   T
  0.4271694277169742  0.9991903978879082  0.5092146971059285   T   T   T
  0.4319459083684991  0.0360343723792444  0.9945301560856601   T   T   T
  0.4351270438264422  0.9617852374265542  0.9933717048682900   T   T   T
  0.4611993934952296  0.0637348178485169  0.5097506620783681   T   T   T
  0.4657016975055239  0.9359041819126132  0.5085720301464273   T   T   T
  0.0043688418771569  0.4264461976601616  0.5074227883039817   T   T   T
  0.4969015872870154  0.0738992585859062  0.9920060425195995   T   T   T
  0.4985416478594159  0.8482636062558558  0.9903970961084771   T   T   T
  0.4988350117016998  0.9264712171799094  0.9907523400723325   T   T   T
  0.4996045632882367  0.1510619797713970  0.9916819490271132   T   T   T
  0.5664062265474064  0.1324517092536648  0.5102419808473039   T   T   T
  0.6415425107286946  0.8286053148395072  0.8196768443165694   T   T   T
  0.6794936108997357  0.8675925036514179  0.3104379038310783   T   T   T
  0.8292612417896437  0.3581484082297763  0.8198242744844187   T   T   T
  0.8666918094534759  0.3219329164265614  0.3123520807197572   T   T   T
  0.9332486839479621  0.6320294125874302  0.9913414488855481   T   T   T
  0.1320299158096188  0.6790827219912962  0.3116056876907569   T   T   T
  0.1326116515504709  0.4345732922849743  0.5060528401183922   T   T   T
  0.1700020699652443  0.6429306483609966  0.8206113002821740   T   T   T
  0.3216104094345592  0.1323513821891756  0.3112649425650851   T   T   T
  0.3615646945671500  0.1739940889640847  0.8169688696001093   T   T   T
  0.3685217941354660  0.0681262874229145  0.9983164732619185   T   T   T
  0.5578980184433159  0.8166323097349362  0.9897683620756380   T   T   T
  0.5592312165489327  0.1820326484116821  0.9907997649395526   T   T   T
  0.0572500362566633  0.6842435050175958  0.5091235847809070   T   T   T
  0.6073324740113470  0.6088846662522835  0.0012492577725210   T   T   T
  0.6105410368127783  0.3900013102462467  0.9999636123693576   T   T   T
  0.0624305229379616  0.3159703437464415  0.5070301441833686   T   T   T
  0.6474766410576599  0.2707258276728218  0.0814609804983128   T   T   T
  0.6428871693897480  0.7272693474283273  0.0833946814677651   T   T   T
  0.6461378997804188  0.7314101395864158  0.9226613685581970   T   T   T
  0.6483620626015499  0.2693874011264853  0.9182060342876808   T   T   T
  0.6833454203222378  0.9437367034031651  0.5083831249236582   T   T   T
  0.6849069905420000  0.0621711720413512  0.5085740434291829   T   T   T
  0.6877669010226565  0.4996872739951675  0.9344569601141157   T   T   T
  0.7089969229630301  0.5015662755625242  0.0691691758617432   T   T   T
  0.7282101003447314  0.3568249332380916  0.0838424540581822   T   T   T
  0.7284123625061306  0.6465961280066083  0.9176210637444522   T   T   T
  0.7290606570634577  0.6467104204221825  0.0805584348707033   T   T   T
  0.7331772620613516  0.3517625710295429  0.9235681932865114   T   T   T
  0.7706775986158302  0.1496289000491264  0.5799429816835481   T   T   T
  0.7702326995295640  0.8572750938045919  0.4194457118858612   T   T   T
  0.7696844800550368  0.8563695316802046  0.5826477736933803   T   T   T
  0.7731264911405223  0.1475301908004577  0.4179972678451552   T   T   T
  0.7921932620742673  0.0015028018762391  0.4311123124766020   T   T   T
  0.8118265101204291  0.0027443731349054  0.5661939251585862   T   T   T
  0.8152275188472420  0.5611119798700785  0.9899183623410130   T   T   T
  0.8171558857872111  0.4427187821033718  0.9890344164882109   T   T   T
  0.8522965405891167  0.7728536732625586  0.4175002623081425   T   T   T
  0.8507604053069575  0.7698874222765271  0.5805785482558189   T   T   T
  0.8573738252147159  0.2304482126739578  0.5827954793762636   T   T   T
  0.8572396660198933  0.2299207394322164  0.4202941223966780   T   T   T
  0.8900045159449552  0.8913567533687506  0.5000415994875069   T   T   T
  0.8927905171764895  0.1100680030052362  0.5000581014509441   T   T   T
  0.9386733224339535  0.6828547282538782  0.5082952276748673   T   T   T
  0.9440555043098937  0.3173712805860323  0.5075532818454793   T   T   T
  0.1089262649505501  0.8909320720222706  0.4999143727367998   T   T   T
  0.1098217165933642  0.1076461541936308  0.5000380810428562   T   T   T
  0.1424199451192365  0.7705919825226963  0.4199382269864302   T   T   T
  0.1429059791362439  0.7705517810754704  0.5831683210573612   T   T   T
  0.1496730824195656  0.2305749297467720  0.5796668038580391   T   T   T
  0.1482108913930982  0.2270217392041234  0.4175426698411828   T   T   T
  0.1823644695465765  0.4392242986266626  0.9897470474656275   T   T   T
  0.1832941409486999  0.5578492171672885  0.9889741898364032   T   T   T
  0.1896485458126472  0.9965084898134885  0.5661772088535799   T   T   T
  0.2097352109013323  0.9982007912355577  0.4311516040157806   T   T   T
  0.2273436930668606  0.8521469576766405  0.4177804009512057   T   T   T
  0.2301951421393450  0.1435928774330646  0.5824567397637068   T   T   T
  0.2299983670898929  0.1423115352277123  0.4195476772923526   T   T   T
  0.2303940883929227  0.8505090449529756  0.5802908809681112   T   T   T
  0.2675413955230245  0.6472135746408386  0.9231882934782734   T   T   T
  0.2711524883650420  0.3526840564472663  0.0809608327041369   T   T   T
  0.2714077431979370  0.3530472410924613  0.9173850364480516   T   T   T
  0.2715464914081678  0.6427079009468428  0.0837298800348780   T   T   T
  0.2894620088019779  0.4978452399204188  0.0694072024332683   T   T   T
  0.3113460031561280  0.4993352853734934  0.9347758268913494   T   T   T
  0.3168415369126149  0.0570873134051946  0.5091746699140978   T   T   T
  0.3180339842802371  0.9384384153911026  0.5083475302788357   T   T   T
  0.0035031126814754  0.1892972002056216  0.5659783243219533   T   T   T
  0.3526453903418507  0.7292004238332850  0.9177380393179678   T   T   T
  0.3526093320486346  0.7284586600993899  0.0814684914102608   T   T   T
  0.3548086298169202  0.2692854365907927  0.9217702217695314   T   T   T
  0.3570489338177287  0.2717565936873858  0.0828132240335668   T   T   T
  0.0018342304760257  0.2081035405533790  0.4307062289158898   T   T   T
  0.9963582840037920  0.8115942533094802  0.5661418048303793   T   T   T
  0.3902468105710955  0.6084512572191965  0.0006688532305920   T   T   T
  0.3913703614131396  0.3920331124370025  0.0018961601018157   T   T   T
  0.4393399762634242  0.8167906791109061  0.9905014659734329   T   T   T
  0.4409314720092696  0.1853214202869795  0.9914799186713144   T   T   T
  0.4974802917258840  0.7095438936178258  0.0696012876706223   T   T   T
  0.9982994517960817  0.7913812001403376  0.4312178932250996   T   T   T
  0.5017591318627614  0.3114821702384477  0.9346114448622532   T   T   T
  0.4988675954333512  0.6882600809053292  0.9349133750554658   T   T   T
  0.5029915302819434  0.2918783084008996  0.0696009138965850   T   T   T
  0.5708630791741230  0.7095598668476609  0.0022481556828232   T   T   T
  0.5753413032084354  0.2885788343818224  0.9994154552786795   T   T   T
  0.0699056678246363  0.7914803115920698  0.5018342206456778   T   T   T
  0.7080678333561569  0.5735540574424196  0.9991944153927903   T   T   T
  0.7105457832650475  0.4279239502760083  0.0018051537375922   T   T   T
  0.0754905833012145  0.2090587134559385  0.4978520679112124   T   T   T
  0.7901867710324292  0.9294601395350621  0.5014851231019773   T   T   T
  0.7917352888394344  0.0750322858919161  0.4985137365078958   T   T   T
  0.9242182290670833  0.7895892568909806  0.4983128922322571   T   T   T
  0.9300966976988443  0.2104509634397018  0.5013641193475695   T   T   T
  0.2098685035269133  0.0698561849248163  0.5016163376452093   T   T   T
  0.2111878682621900  0.9241702920939242  0.4984158426806680   T   T   T
  0.2899725769786731  0.5713673709479247  0.0020014051778414   T   T   T
  0.2893141991227563  0.4256914823100258  0.9995021883813033   T   T   T
  0.4252472526559610  0.7099211506240323  0.9996554480662045   T   T   T
  0.4298407539257601  0.2927477358886580  0.0024020004992584   T   T   T
 
  0.00000000E+00  0.00000000E+00  0.00000000E+00
  0.00000000E+00  0.00000000E+00  0.00000000E+00
  0.00000000E+00  0.00000000E+00  0.00000000E+00
  0.00000000E+00  0.00000000E+00  0.00000000E+00
  0.00000000E+00  0.00000000E+00  0.00000000E+00
  0.00000000E+00  0.00000000E+00  0.00000000E+00
  0.00000000E+00  0.00000000E+00  0.00000000E+00
  0.00000000E+00  0.00000000E+00  0.00000000E+00
  0.00000000E+00  0.00000000E+00  0.00000000E+00
  0.00000000E+00  0.00000000E+00  0.00000000E+00
  0.00000000E+00  0.00000000E+00  0.00000000E+00
  0.00000000E+00  0.00000000E+00  0.00000000E+00
  0.00000000E+00  0.00000000E+00  0.00000000E+00
  0.00000000E+00  0.00000000E+00  0.00000000E+00
  0.00000000E+00  0.00000000E+00  0.00000000E+00
  0.00000000E+00  0.00000000E+00  0.00000000E+00
  0.00000000E+00  0.00000000E+00  0.00000000E+00
  0.00000000E+00  0.00000000E+00  0.00000000E+00
  0.00000000E+00  0.00000000E+00  0.00000000E+00
  0.00000000E+00  0.00000000E+00  0.00000000E+00
  0.00000000E+00  0.00000000E+00  0.00000000E+00
  0.00000000E+00  0.00000000E+00  0.00000000E+00
  0.00000000E+00  0.00000000E+00  0.00000000E+00
  0.00000000E+00  0.00000000E+00  0.00000000E+00
  0.00000000E+00  0.00000000E+00  0.00000000E+00
  0.00000000E+00  0.00000000E+00  0.00000000E+00
  0.00000000E+00  0.00000000E+00  0.00000000E+00
  0.00000000E+00  0.00000000E+00  0.00000000E+00
  0.00000000E+00  0.00000000E+00  0.00000000E+00
  0.00000000E+00  0.00000000E+00  0.00000000E+00
  0.00000000E+00  0.00000000E+00  0.00000000E+00
  0.00000000E+00  0.00000000E+00  0.00000000E+00
  0.00000000E+00  0.00000000E+00  0.00000000E+00
  0.00000000E+00  0.00000000E+00  0.00000000E+00
  0.00000000E+00  0.00000000E+00  0.00000000E+00
  0.00000000E+00  0.00000000E+00  0.00000000E+00
  0.00000000E+00  0.00000000E+00  0.00000000E+00
  0.00000000E+00  0.00000000E+00  0.00000000E+00
  0.00000000E+00  0.00000000E+00  0.00000000E+00
  0.00000000E+00  0.00000000E+00  0.00000000E+00
  0.00000000E+00  0.00000000E+00  0.00000000E+00
  0.00000000E+00  0.00000000E+00  0.00000000E+00
  0.00000000E+00  0.00000000E+00  0.00000000E+00
  0.00000000E+00  0.00000000E+00  0.00000000E+00
  0.00000000E+00  0.00000000E+00  0.00000000E+00
  0.00000000E+00  0.00000000E+00  0.00000000E+00
  0.00000000E+00  0.00000000E+00  0.00000000E+00
  0.00000000E+00  0.00000000E+00  0.00000000E+00
  0.00000000E+00  0.00000000E+00  0.00000000E+00
  0.00000000E+00  0.00000000E+00  0.00000000E+00
  0.00000000E+00  0.00000000E+00  0.00000000E+00
  0.00000000E+00  0.00000000E+00  0.00000000E+00
  0.00000000E+00  0.00000000E+00  0.00000000E+00
  0.00000000E+00  0.00000000E+00  0.00000000E+00
  0.00000000E+00  0.00000000E+00  0.00000000E+00
  0.00000000E+00  0.00000000E+00  0.00000000E+00
  0.00000000E+00  0.00000000E+00  0.00000000E+00
  0.00000000E+00  0.00000000E+00  0.00000000E+00
  0.00000000E+00  0.00000000E+00  0.00000000E+00
  0.00000000E+00  0.00000000E+00  0.00000000E+00
  0.00000000E+00  0.00000000E+00  0.00000000E+00
  0.00000000E+00  0.00000000E+00  0.00000000E+00
  0.00000000E+00  0.00000000E+00  0.00000000E+00
  0.00000000E+00  0.00000000E+00  0.00000000E+00
  0.00000000E+00  0.00000000E+00  0.00000000E+00
  0.00000000E+00  0.00000000E+00  0.00000000E+00
  0.00000000E+00  0.00000000E+00  0.00000000E+00
  0.00000000E+00  0.00000000E+00  0.00000000E+00
  0.00000000E+00  0.00000000E+00  0.00000000E+00
  0.00000000E+00  0.00000000E+00  0.00000000E+00
  0.00000000E+00  0.00000000E+00  0.00000000E+00
  0.00000000E+00  0.00000000E+00  0.00000000E+00
  0.00000000E+00  0.00000000E+00  0.00000000E+00
  0.00000000E+00  0.00000000E+00  0.00000000E+00
  0.00000000E+00  0.00000000E+00  0.00000000E+00
  0.00000000E+00  0.00000000E+00  0.00000000E+00
  0.00000000E+00  0.00000000E+00  0.00000000E+00
  0.00000000E+00  0.00000000E+00  0.00000000E+00
  0.00000000E+00  0.00000000E+00  0.00000000E+00
  0.00000000E+00  0.00000000E+00  0.00000000E+00
  0.00000000E+00  0.00000000E+00  0.00000000E+00
  0.00000000E+00  0.00000000E+00  0.00000000E+00
  0.00000000E+00  0.00000000E+00  0.00000000E+00
  0.00000000E+00  0.00000000E+00  0.00000000E+00
  0.00000000E+00  0.00000000E+00  0.00000000E+00
  0.00000000E+00  0.00000000E+00  0.00000000E+00
  0.00000000E+00  0.00000000E+00  0.00000000E+00
  0.00000000E+00  0.00000000E+00  0.00000000E+00
  0.00000000E+00  0.00000000E+00  0.00000000E+00
  0.00000000E+00  0.00000000E+00  0.00000000E+00
  0.00000000E+00  0.00000000E+00  0.00000000E+00
  0.00000000E+00  0.00000000E+00  0.00000000E+00
  0.00000000E+00  0.00000000E+00  0.00000000E+00
  0.00000000E+00  0.00000000E+00  0.00000000E+00
  0.00000000E+00  0.00000000E+00  0.00000000E+00
  0.00000000E+00  0.00000000E+00  0.00000000E+00
  0.00000000E+00  0.00000000E+00  0.00000000E+00
  0.00000000E+00  0.00000000E+00  0.00000000E+00
  0.00000000E+00  0.00000000E+00  0.00000000E+00
  0.00000000E+00  0.00000000E+00  0.00000000E+00
  0.00000000E+00  0.00000000E+00  0.00000000E+00
  0.00000000E+00  0.00000000E+00  0.00000000E+00
  0.00000000E+00  0.00000000E+00  0.00000000E+00
  0.00000000E+00  0.00000000E+00  0.00000000E+00
  0.00000000E+00  0.00000000E+00  0.00000000E+00
  0.00000000E+00  0.00000000E+00  0.00000000E+00
  0.00000000E+00  0.00000000E+00  0.00000000E+00
  0.00000000E+00  0.00000000E+00  0.00000000E+00
  0.00000000E+00  0.00000000E+00  0.00000000E+00
  0.00000000E+00  0.00000000E+00  0.00000000E+00
  0.00000000E+00  0.00000000E+00  0.00000000E+00
  0.00000000E+00  0.00000000E+00  0.00000000E+00
  0.00000000E+00  0.00000000E+00  0.00000000E+00
  0.00000000E+00  0.00000000E+00  0.00000000E+00
  0.00000000E+00  0.00000000E+00  0.00000000E+00
  0.00000000E+00  0.00000000E+00  0.00000000E+00
  0.00000000E+00  0.00000000E+00  0.00000000E+00
  0.00000000E+00  0.00000000E+00  0.00000000E+00
  0.00000000E+00  0.00000000E+00  0.00000000E+00
  0.00000000E+00  0.00000000E+00  0.00000000E+00
  0.00000000E+00  0.00000000E+00  0.00000000E+00
  0.00000000E+00  0.00000000E+00  0.00000000E+00
  0.00000000E+00  0.00000000E+00  0.00000000E+00
  0.00000000E+00  0.00000000E+00  0.00000000E+00
  0.00000000E+00  0.00000000E+00  0.00000000E+00
  0.00000000E+00  0.00000000E+00  0.00000000E+00
  0.00000000E+00  0.00000000E+00  0.00000000E+00
  0.00000000E+00  0.00000000E+00  0.00000000E+00
  0.00000000E+00  0.00000000E+00  0.00000000E+00
  0.00000000E+00  0.00000000E+00  0.00000000E+00
  0.00000000E+00  0.00000000E+00  0.00000000E+00
  0.00000000E+00  0.00000000E+00  0.00000000E+00
  0.00000000E+00  0.00000000E+00  0.00000000E+00
  0.00000000E+00  0.00000000E+00  0.00000000E+00
  0.00000000E+00  0.00000000E+00  0.00000000E+00
  0.00000000E+00  0.00000000E+00  0.00000000E+00
  0.00000000E+00  0.00000000E+00  0.00000000E+00
  0.00000000E+00  0.00000000E+00  0.00000000E+00
  0.00000000E+00  0.00000000E+00  0.00000000E+00
  0.00000000E+00  0.00000000E+00  0.00000000E+00
  0.00000000E+00  0.00000000E+00  0.00000000E+00
  0.00000000E+00  0.00000000E+00  0.00000000E+00
  0.00000000E+00  0.00000000E+00  0.00000000E+00
  0.00000000E+00  0.00000000E+00  0.00000000E+00
  0.00000000E+00  0.00000000E+00  0.00000000E+00
  0.00000000E+00  0.00000000E+00  0.00000000E+00
  0.00000000E+00  0.00000000E+00  0.00000000E+00
  0.00000000E+00  0.00000000E+00  0.00000000E+00
  0.00000000E+00  0.00000000E+00  0.00000000E+00
  0.00000000E+00  0.00000000E+00  0.00000000E+00
  0.00000000E+00  0.00000000E+00  0.00000000E+00
  0.00000000E+00  0.00000000E+00  0.00000000E+00
  0.00000000E+00  0.00000000E+00  0.00000000E+00
  0.00000000E+00  0.00000000E+00  0.00000000E+00
  0.00000000E+00  0.00000000E+00  0.00000000E+00
  0.00000000E+00  0.00000000E+00  0.00000000E+00
  0.00000000E+00  0.00000000E+00  0.00000000E+00
  0.00000000E+00  0.00000000E+00  0.00000000E+00
  0.00000000E+00  0.00000000E+00  0.00000000E+00
  0.00000000E+00  0.00000000E+00  0.00000000E+00
  0.00000000E+00  0.00000000E+00  0.00000000E+00
  0.00000000E+00  0.00000000E+00  0.00000000E+00
  0.00000000E+00  0.00000000E+00  0.00000000E+00
  0.00000000E+00  0.00000000E+00  0.00000000E+00
  0.00000000E+00  0.00000000E+00  0.00000000E+00
  0.00000000E+00  0.00000000E+00  0.00000000E+00
  0.00000000E+00  0.00000000E+00  0.00000000E+00
  0.00000000E+00  0.00000000E+00  0.00000000E+00
  0.00000000E+00  0.00000000E+00  0.00000000E+00
  0.00000000E+00  0.00000000E+00  0.00000000E+00
  0.00000000E+00  0.00000000E+00  0.00000000E+00
  0.00000000E+00  0.00000000E+00  0.00000000E+00
  0.00000000E+00  0.00000000E+00  0.00000000E+00
  0.00000000E+00  0.00000000E+00  0.00000000E+00
  0.00000000E+00  0.00000000E+00  0.00000000E+00
  0.00000000E+00  0.00000000E+00  0.00000000E+00
  0.00000000E+00  0.00000000E+00  0.00000000E+00
  0.00000000E+00  0.00000000E+00  0.00000000E+00
  0.00000000E+00  0.00000000E+00  0.00000000E+00
  0.00000000E+00  0.00000000E+00  0.00000000E+00
  0.00000000E+00  0.00000000E+00  0.00000000E+00
  0.00000000E+00  0.00000000E+00  0.00000000E+00
  0.00000000E+00  0.00000000E+00  0.00000000E+00
  0.00000000E+00  0.00000000E+00  0.00000000E+00
  0.00000000E+00  0.00000000E+00  0.00000000E+00
  0.00000000E+00  0.00000000E+00  0.00000000E+00
  0.00000000E+00  0.00000000E+00  0.00000000E+00
  0.00000000E+00  0.00000000E+00  0.00000000E+00
  0.00000000E+00  0.00000000E+00  0.00000000E+00
  0.00000000E+00  0.00000000E+00  0.00000000E+00
  0.00000000E+00  0.00000000E+00  0.00000000E+00
  0.00000000E+00  0.00000000E+00  0.00000000E+00
  0.00000000E+00  0.00000000E+00  0.00000000E+00
  0.00000000E+00  0.00000000E+00  0.00000000E+00
  0.00000000E+00  0.00000000E+00  0.00000000E+00
  0.00000000E+00  0.00000000E+00  0.00000000E+00
  0.00000000E+00  0.00000000E+00  0.00000000E+00
  0.00000000E+00  0.00000000E+00  0.00000000E+00
  0.00000000E+00  0.00000000E+00  0.00000000E+00
  0.00000000E+00  0.00000000E+00  0.00000000E+00
  0.00000000E+00  0.00000000E+00  0.00000000E+00
  0.00000000E+00  0.00000000E+00  0.00000000E+00
  0.00000000E+00  0.00000000E+00  0.00000000E+00
  0.00000000E+00  0.00000000E+00  0.00000000E+00
  0.00000000E+00  0.00000000E+00  0.00000000E+00
  0.00000000E+00  0.00000000E+00  0.00000000E+00
  0.00000000E+00  0.00000000E+00  0.00000000E+00
  0.00000000E+00  0.00000000E+00  0.00000000E+00
  0.00000000E+00  0.00000000E+00  0.00000000E+00
  0.00000000E+00  0.00000000E+00  0.00000000E+00
  0.00000000E+00  0.00000000E+00  0.00000000E+00