ACM-1-Ovequa-CO2                        
   1.00000000000000     
    30.7123579999999983    0.0402650000000000   -0.0055660000000000
     0.0000000000000000    7.0591249999999999   -0.0064340000000000
     0.0000000000000000    0.0000000000000000   15.9014330000000008
   H    C    O    Ti
    44    89    21     4
Selective dynamics
Direct
  0.0382849249267136  0.4861097650429275  0.2895402693815973   T   T   T
  0.9572529347900250  0.4945804245922925  0.7174402850972375   T   T   T
  0.9582595538512698  0.4902480972252071  0.2888706397979079   T   T   T
  0.0372622749242127  0.4954772780756727  0.7181145955277993   T   T   T
  0.5390855688527623  0.9820732093167053  0.2890600845955276   T   T   T
  0.4611121185652942  0.9723316122111063  0.7186181122984352   T   T   T
  0.4591082831219336  0.9703505129420852  0.2904067176442952   T   T   T
  0.5410669338218917  0.9837507349712868  0.7173534365712940   T   T   T
  0.1479522151711657  0.5026031539772877  0.5048265920672195   T   T   T
  0.8475155270362620  0.5003387457144289  0.5018427946035106   T   T   T
  0.6502709073117682 -0.0059289885364542  0.5010754628244116   T   T   T
  0.3498887542081827  0.9593342792745586  0.5061862468235989   T   T   T
  0.1397932923295865  0.2363020116934594  0.1721340203786059   T   T   T
  0.6408080062021971  0.2769434584735074  0.8304893263444834   T   T   T
  0.3625564613243409  0.2711189306585681  0.8305255776518367   T   T   T
  0.1477361966839255  0.7591866108236862  0.3818780381735157   T   T   T
  0.0927096627567079  0.2282277579463796  0.2996851295179525   T   T   T
  0.3461733640302204  0.7254780774112738  0.6336989659205098   T   T   T
  0.5928002628365125  0.2671916434318207  0.7032595906198116   T   T   T
  0.4107863501220446  0.2447002129226211  0.7039442160060089   T   T   T
  0.6524189070962895  0.7397587966860816  0.6279471870666825   T   T   T
  0.9070190309613588  0.7726968528730906  0.3033727397153337   T   T   T
  0.9040318226786423  0.2257482636057637  0.7073410430930337   T   T   T
  0.1476180644951034  0.7579945897608668  0.6281742545747738   T   T   T
  0.8468311669159189  0.2426561647026871  0.3717494219231051   T   T   T
  0.6504449870983596  0.7380886857322824  0.3712042315818182   T   T   T
  0.5903279946563692  0.2692650192219404  0.3031795547581215   T   T   T
  0.8015143697544556  0.7625640311008648  0.7563191823689736   T   T   T
  0.1919861384398161  0.7697991663971070  0.7602426238023507   T   T   T
  0.8064230005530595  0.2412162978430517  0.2347886380798607   T   T   T
  0.6907011478494801  0.7359250589758214  0.2340239329777945   T   T   T
  0.6343629655949078  0.2756250064486348  0.1704179659701399   T   T   T
  0.3003762335859910  0.7463599771184657  0.2441472766838328   T   T   T
  0.8631119665575954  0.7789564690279118  0.1704301014376539   T   T   T
  0.1387717990647009  0.2322097541462746  0.8359919247581380   T   T   T
  0.1921335712890395  0.7740881751225474  0.2499627670378450   T   T   T
  0.3614116421503880  0.2766507190435478  0.1825044288728235   T   T   T
  0.6971533246548930  0.7411624554187328  0.7596544334725964   T   T   T
  0.2999748623215769  0.7475721732278234  0.7634417959721129   T   T   T
  0.8463563840453902  0.7515829423870996  0.6249056572408034   T   T   T
  0.0915975316935519  0.2278801824264763  0.7084629451146118   T   T   T
  0.3457826254831359  0.7234694393617527  0.3748893329871855   T   T   T
  0.4092071662767937  0.2482231752604577  0.3095199188321688   T   T   T
  0.8560550936676935  0.2288713631382838  0.8345355312484827   T   T   T
  0.1962963662780108  0.5162786939971163  0.1265052260507702   T   T   T
  0.7980589571895589  0.5006695204228906  0.8787592092889281   T   T   T
  0.8080491058627491  0.5066355680580888  0.1141831438911270   T   T   T
  0.1959725820549933  0.5097875240136509  0.8824250964813856   T   T   T
  0.6893307421397440  0.0051229256309389  0.1141089225072082   T   T   T
  0.2996830159869993  0.0266497748184737  0.8782877453337214   T   T   T
  0.3000080612108587  0.0300705719555288  0.1309394884789784   T   T   T
  0.6996973640438185  0.0116249207637543  0.8782839003561653   T   T   T
  0.0203715827570570  0.4852131722472261  0.3490620667462178   T   T   T
  0.9751465609828849  0.4871616567532910  0.6579593447105634   T   T   T
  0.9759201028755825  0.4888303180445412  0.3486681839216142   T   T   T
  0.0196284697997392  0.4874027460548810  0.6583613817285477   T   T   T
  0.5215098225034174  0.9892687158970379  0.3488753172102737   T   T   T
  0.4785196345990996  0.9843024131868868  0.6587868177257047   T   T   T
  0.4770637503333156  0.9828757242838831  0.3496323188743244   T   T   T
  0.5229809572659107  0.9906329853432314  0.6580792422266430   T   T   T
  0.0210732400686342  0.4816322890894258  0.5037662120334148   T   T   T
  0.9744791533072709  0.4843513906112043  0.5033274632734448   T   T   T
  0.5232466973031855  0.9981101763767931  0.5034925227818442   T   T   T
  0.4767019141498687  0.9911131245650483  0.5042487199146369   T   T   T
  0.0906170596784415  0.4901699465647573  0.4272802554912132   T   T   T
  0.9048194513329890  0.4867960589057975  0.5796218100107645   T   T   T
  0.9053217331991344  0.4997630818372589  0.4254547240805300   T   T   T
  0.0902919806345557  0.4899800473145051  0.5814560999864956   T   T   T
  0.5922692295261716 -0.0011573311191301  0.4251547039596038   T   T   T
  0.4077014485126054  0.9751503408874825  0.5823509569264813   T   T   T
  0.4070146373616986  0.9748284119993919  0.4282650562164267   T   T   T
  0.5930408217402023 -0.0010908891206540  0.5792364510857689   T   T   T
  0.0444812832393247  0.4830890605786768  0.4259173437645811   T   T   T
  0.9510056539816168  0.4827782906133379  0.5811214222781937   T   T   T
  0.9514782367243749  0.4920861076615350  0.4250931167470330   T   T   T
  0.0441397427133106  0.4824434195917470  0.5820148584970455   T   T   T
  0.5460878024148257 -0.0007026057277140  0.4250691700360371   T   T   T
  0.4538172917261840  0.9866970753772567  0.5826165025807296   T   T   T
  0.4531206100952657  0.9860676021655824  0.4266423892388633   T   T   T
  0.5468756158356755 -0.0001165408531241  0.5810836487967284   T   T   T
  0.1122557880026034  0.4978262157478118  0.5045544474428711   T   T   T
  0.8832185779702399  0.4958169897450182  0.5022443429801388   T   T   T
  0.6145555594135166 -0.0063853323295347  0.5017593053529589   T   T   T
  0.3855815080996959  0.9642088215008695  0.5056120745517323   T   T   T
  0.1683851126068363  0.5070517271522351  0.2028738096843036   T   T   T
  0.8262566043306468  0.4964814448009261  0.8029299210152467   T   T   T
  0.8326997393582793  0.5094204371617409  0.1948177072464388   T   T   T
  0.1678784735975564  0.5024495193038800  0.8061790931982389   T   T   T
  0.6646464659156588  0.0053432006979262  0.1946006744756567   T   T   T
  0.3285103765997184  0.0109364012081012  0.8037708341892198   T   T   T
  0.3282631244461313  0.0128270094500189  0.2062566316601460   T   T   T
  0.6715578744267637  0.0090954300322364  0.8024123947585159   T   T   T
  0.1704090387441725  0.6542714807130773  0.2619588994398279   T   T   T
  0.1408572141292170  0.3525570412425216  0.2176573468581771   T   T   T
  0.3241213371156794  0.8567108022016837  0.7488946150028192   T   T   T
  0.6425304602551092  0.1581121446439394  0.7862999106374278   T   T   T
  0.3597409668223349  0.1507659493102997  0.7873789437804788   T   T   T
  0.6746072439744936  0.8573297276534859  0.7458449767521059   T   T   T
  0.1456248272370354  0.6453980659868562  0.3351427072458109   T   T   T
  0.1146571063804515  0.3481126308012326  0.2891048107502315   T   T   T
  0.3499924659053582  0.8447806631218910  0.6772132615134389   T   T   T
  0.6160069347038561  0.1523357741709594  0.7152688760632661   T   T   T
  0.3864807790802516  0.1351868249620844  0.7170921082276237   T   T   T
  0.6495304943565902  0.8567432763669508  0.6729461108539522   T   T   T
  0.1168548384448021  0.4941186733483403  0.3492198738439246   T   T   T
  0.8784344686689479  0.4888056968888889  0.6575528332651456   T   T   T
  0.8800183984617100  0.5064828712873737  0.3461454675194679   T   T   T
  0.1162756643055968  0.4933787551740346  0.6598547830524930   T   T   T
  0.6173966331268222  0.0027267104499369  0.3457690513072402   T   T   T
  0.3817039660193209  0.9832036255828100  0.6604812922456500   T   T   T
  0.3807156398849537  0.9837791739477808  0.3504970148572913   T   T   T
  0.6194266576865060  0.0026277455766265  0.6571335796909531   T   T   T
  0.8488020790408028  0.6376818310407026  0.6714451658659695   T   T   T
  0.8845754273266068  0.6567038315847504  0.2887339706212336   T   T   T
  0.1137743262884374  0.3468086737296280  0.7195115914609351   T   T   T
  0.8813202496783485  0.3432588741238344  0.7177436591299923   T   T   T
  0.1452862769326944  0.6436562760130996  0.6745241952299771   T   T   T
  0.8507243064423357  0.3597280464279529  0.3271799464092780   T   T   T
  0.6465848512955952  0.8553505217027754  0.3267045034486705   T   T   T
  0.3852273932840686  0.1380287900498454  0.2951888901930109   T   T   T
  0.6127748633732892  0.1531222639844572  0.2884524182015442   T   T   T
  0.3495014327699421  0.8442370328756461  0.3322447162653091   T   T   T
  0.8237084527463285  0.6441422215887579  0.7442509973591594   T   T   T
  0.8604606206109913  0.6604537693964601  0.2145205544766652   T   T   T
  0.1400533864269801  0.3491352072113610  0.7909241055634311   T   T   T
  0.8547995705022504  0.3446272265364432  0.7888091424583044   T   T   T
  0.1701008063803470  0.6506819040892232  0.7477428390061155   T   T   T
  0.8280186700640868  0.3587167913320712  0.2514086106132093   T   T   T
  0.6692040048962941  0.8538950324581974  0.2508098241043438   T   T   T
  0.3587956958013443  0.1544551247356980  0.2245488396450267   T   T   T
  0.6369354857282375  0.1568656196003495  0.2143954349990414   T   T   T
  0.3240498758739175  0.8566677516417225  0.2599388787868735   T   T   T
  0.1699627169880830  0.0826221612579050  0.0036859415748298   T   T   T
  0.2847292135159706  0.5447015799281882  0.0029875242000906   T   T   T
  0.7289226592943691  0.5093868362639863  0.0277675544811111   T   T   T
  0.7685792725537918  0.0074514584762469  0.0279942184323181   T   T   T
  0.2091648044407090  0.3603192744197746  0.0937973819534658   T   T   T
  0.7850874419738660  0.6629635576323387  0.9039876570381801   T   T   T
  0.8008539104557465  0.6657620527406340  0.0783217763444563   T   T   T
  0.2103154258227584  0.3532736237151057  0.9121143000155966   T   T   T
  0.7883842691304208  0.3417388189064220  0.9121754443993244   T   T   T
  0.2063758449334864  0.6802305366647718  0.0995972852387889   T   T   T
  0.2046937233886302  0.6729377322398283  0.9120179905445041   T   T   T
  0.7965498780868354  0.3434336741124381  0.0875515038093516   T   T   T
  0.7000304026298235  0.8436935121663409  0.0842188384150847   T   T   T
  0.2975866138725899  0.1848063013998640  0.9163034190328383   T   T   T
  0.2955626575716784  0.1930635354032095  0.0980617431265218   T   T   T
  0.7121089187250855  0.8511947382953028  0.9066990876437973   T   T   T
  0.2776071820390181  0.8819877252305112  0.8997396546271937   T   T   T
  0.6973475625412778  0.1669999937367631  0.0813713536072262   T   T   T
  0.7099246739856615  0.1731215969570895  0.9085829382537538   T   T   T
  0.2808067345041675  0.8825995545363696  0.1039911507099697   T   T   T
  0.2066986824332811  0.0309122959902441  0.0052461780818858   T   T   T
  0.1335019035146023  0.1281662560695416  0.0022195019030545   T   T   T
  0.2593241231467702  0.3114364389289613  0.0046549686464714   T   T   T
  0.7495142901984138  0.7585376821262063  0.0040152035143268   T   T   T
  0.7478928520302049  0.2585184643389916  0.0068772348249711   T   T   T
  0.2500370575083630  0.7568607344514383  0.0036583416321965   T   T   T
 
  0.00000000E+00  0.00000000E+00  0.00000000E+00
  0.00000000E+00  0.00000000E+00  0.00000000E+00
  0.00000000E+00  0.00000000E+00  0.00000000E+00
  0.00000000E+00  0.00000000E+00  0.00000000E+00
  0.00000000E+00  0.00000000E+00  0.00000000E+00
  0.00000000E+00  0.00000000E+00  0.00000000E+00
  0.00000000E+00  0.00000000E+00  0.00000000E+00
  0.00000000E+00  0.00000000E+00  0.00000000E+00
  0.00000000E+00  0.00000000E+00  0.00000000E+00
  0.00000000E+00  0.00000000E+00  0.00000000E+00
  0.00000000E+00  0.00000000E+00  0.00000000E+00
  0.00000000E+00  0.00000000E+00  0.00000000E+00
  0.00000000E+00  0.00000000E+00  0.00000000E+00
  0.00000000E+00  0.00000000E+00  0.00000000E+00
  0.00000000E+00  0.00000000E+00  0.00000000E+00
  0.00000000E+00  0.00000000E+00  0.00000000E+00
  0.00000000E+00  0.00000000E+00  0.00000000E+00
  0.00000000E+00  0.00000000E+00  0.00000000E+00
  0.00000000E+00  0.00000000E+00  0.00000000E+00
  0.00000000E+00  0.00000000E+00  0.00000000E+00
  0.00000000E+00  0.00000000E+00  0.00000000E+00
  0.00000000E+00  0.00000000E+00  0.00000000E+00
  0.00000000E+00  0.00000000E+00  0.00000000E+00
  0.00000000E+00  0.00000000E+00  0.00000000E+00
  0.00000000E+00  0.00000000E+00  0.00000000E+00
  0.00000000E+00  0.00000000E+00  0.00000000E+00
  0.00000000E+00  0.00000000E+00  0.00000000E+00
  0.00000000E+00  0.00000000E+00  0.00000000E+00
  0.00000000E+00  0.00000000E+00  0.00000000E+00
  0.00000000E+00  0.00000000E+00  0.00000000E+00
  0.00000000E+00  0.00000000E+00  0.00000000E+00
  0.00000000E+00  0.00000000E+00  0.00000000E+00
  0.00000000E+00  0.00000000E+00  0.00000000E+00
  0.00000000E+00  0.00000000E+00  0.00000000E+00
  0.00000000E+00  0.00000000E+00  0.00000000E+00
  0.00000000E+00  0.00000000E+00  0.00000000E+00
  0.00000000E+00  0.00000000E+00  0.00000000E+00
  0.00000000E+00  0.00000000E+00  0.00000000E+00
  0.00000000E+00  0.00000000E+00  0.00000000E+00
  0.00000000E+00  0.00000000E+00  0.00000000E+00
  0.00000000E+00  0.00000000E+00  0.00000000E+00
  0.00000000E+00  0.00000000E+00  0.00000000E+00
  0.00000000E+00  0.00000000E+00  0.00000000E+00
  0.00000000E+00  0.00000000E+00  0.00000000E+00
  0.00000000E+00  0.00000000E+00  0.00000000E+00
  0.00000000E+00  0.00000000E+00  0.00000000E+00
  0.00000000E+00  0.00000000E+00  0.00000000E+00
  0.00000000E+00  0.00000000E+00  0.00000000E+00
  0.00000000E+00  0.00000000E+00  0.00000000E+00
  0.00000000E+00  0.00000000E+00  0.00000000E+00
  0.00000000E+00  0.00000000E+00  0.00000000E+00
  0.00000000E+00  0.00000000E+00  0.00000000E+00
  0.00000000E+00  0.00000000E+00  0.00000000E+00
  0.00000000E+00  0.00000000E+00  0.00000000E+00
  0.00000000E+00  0.00000000E+00  0.00000000E+00
  0.00000000E+00  0.00000000E+00  0.00000000E+00
  0.00000000E+00  0.00000000E+00  0.00000000E+00
  0.00000000E+00  0.00000000E+00  0.00000000E+00
  0.00000000E+00  0.00000000E+00  0.00000000E+00
  0.00000000E+00  0.00000000E+00  0.00000000E+00
  0.00000000E+00  0.00000000E+00  0.00000000E+00
  0.00000000E+00  0.00000000E+00  0.00000000E+00
  0.00000000E+00  0.00000000E+00  0.00000000E+00
  0.00000000E+00  0.00000000E+00  0.00000000E+00
  0.00000000E+00  0.00000000E+00  0.00000000E+00
  0.00000000E+00  0.00000000E+00  0.00000000E+00
  0.00000000E+00  0.00000000E+00  0.00000000E+00
  0.00000000E+00  0.00000000E+00  0.00000000E+00
  0.00000000E+00  0.00000000E+00  0.00000000E+00
  0.00000000E+00  0.00000000E+00  0.00000000E+00
  0.00000000E+00  0.00000000E+00  0.00000000E+00
  0.00000000E+00  0.00000000E+00  0.00000000E+00
  0.00000000E+00  0.00000000E+00  0.00000000E+00
  0.00000000E+00  0.00000000E+00  0.00000000E+00
  0.00000000E+00  0.00000000E+00  0.00000000E+00
  0.00000000E+00  0.00000000E+00  0.00000000E+00
  0.00000000E+00  0.00000000E+00  0.00000000E+00
  0.00000000E+00  0.00000000E+00  0.00000000E+00
  0.00000000E+00  0.00000000E+00  0.00000000E+00
  0.00000000E+00  0.00000000E+00  0.00000000E+00
  0.00000000E+00  0.00000000E+00  0.00000000E+00
  0.00000000E+00  0.00000000E+00  0.00000000E+00
  0.00000000E+00  0.00000000E+00  0.00000000E+00
  0.00000000E+00  0.00000000E+00  0.00000000E+00
  0.00000000E+00  0.00000000E+00  0.00000000E+00
  0.00000000E+00  0.00000000E+00  0.00000000E+00
  0.00000000E+00  0.00000000E+00  0.00000000E+00
  0.00000000E+00  0.00000000E+00  0.00000000E+00
  0.00000000E+00  0.00000000E+00  0.00000000E+00
  0.00000000E+00  0.00000000E+00  0.00000000E+00
  0.00000000E+00  0.00000000E+00  0.00000000E+00
  0.00000000E+00  0.00000000E+00  0.00000000E+00
  0.00000000E+00  0.00000000E+00  0.00000000E+00
  0.00000000E+00  0.00000000E+00  0.00000000E+00
  0.00000000E+00  0.00000000E+00  0.00000000E+00
  0.00000000E+00  0.00000000E+00  0.00000000E+00
  0.00000000E+00  0.00000000E+00  0.00000000E+00
  0.00000000E+00  0.00000000E+00  0.00000000E+00
  0.00000000E+00  0.00000000E+00  0.00000000E+00
  0.00000000E+00  0.00000000E+00  0.00000000E+00
  0.00000000E+00  0.00000000E+00  0.00000000E+00
  0.00000000E+00  0.00000000E+00  0.00000000E+00
  0.00000000E+00  0.00000000E+00  0.00000000E+00
  0.00000000E+00  0.00000000E+00  0.00000000E+00
  0.00000000E+00  0.00000000E+00  0.00000000E+00
  0.00000000E+00  0.00000000E+00  0.00000000E+00
  0.00000000E+00  0.00000000E+00  0.00000000E+00
  0.00000000E+00  0.00000000E+00  0.00000000E+00
  0.00000000E+00  0.00000000E+00  0.00000000E+00
  0.00000000E+00  0.00000000E+00  0.00000000E+00
  0.00000000E+00  0.00000000E+00  0.00000000E+00
  0.00000000E+00  0.00000000E+00  0.00000000E+00
  0.00000000E+00  0.00000000E+00  0.00000000E+00
  0.00000000E+00  0.00000000E+00  0.00000000E+00
  0.00000000E+00  0.00000000E+00  0.00000000E+00
  0.00000000E+00  0.00000000E+00  0.00000000E+00
  0.00000000E+00  0.00000000E+00  0.00000000E+00
  0.00000000E+00  0.00000000E+00  0.00000000E+00
  0.00000000E+00  0.00000000E+00  0.00000000E+00
  0.00000000E+00  0.00000000E+00  0.00000000E+00
  0.00000000E+00  0.00000000E+00  0.00000000E+00
  0.00000000E+00  0.00000000E+00  0.00000000E+00
  0.00000000E+00  0.00000000E+00  0.00000000E+00
  0.00000000E+00  0.00000000E+00  0.00000000E+00
  0.00000000E+00  0.00000000E+00  0.00000000E+00
  0.00000000E+00  0.00000000E+00  0.00000000E+00
  0.00000000E+00  0.00000000E+00  0.00000000E+00
  0.00000000E+00  0.00000000E+00  0.00000000E+00
  0.00000000E+00  0.00000000E+00  0.00000000E+00
  0.00000000E+00  0.00000000E+00  0.00000000E+00
  0.00000000E+00  0.00000000E+00  0.00000000E+00
  0.00000000E+00  0.00000000E+00  0.00000000E+00
  0.00000000E+00  0.00000000E+00  0.00000000E+00
  0.00000000E+00  0.00000000E+00  0.00000000E+00
  0.00000000E+00  0.00000000E+00  0.00000000E+00
  0.00000000E+00  0.00000000E+00  0.00000000E+00
  0.00000000E+00  0.00000000E+00  0.00000000E+00
  0.00000000E+00  0.00000000E+00  0.00000000E+00
  0.00000000E+00  0.00000000E+00  0.00000000E+00
  0.00000000E+00  0.00000000E+00  0.00000000E+00
  0.00000000E+00  0.00000000E+00  0.00000000E+00
  0.00000000E+00  0.00000000E+00  0.00000000E+00
  0.00000000E+00  0.00000000E+00  0.00000000E+00
  0.00000000E+00  0.00000000E+00  0.00000000E+00
  0.00000000E+00  0.00000000E+00  0.00000000E+00
  0.00000000E+00  0.00000000E+00  0.00000000E+00
  0.00000000E+00  0.00000000E+00  0.00000000E+00
  0.00000000E+00  0.00000000E+00  0.00000000E+00
  0.00000000E+00  0.00000000E+00  0.00000000E+00
  0.00000000E+00  0.00000000E+00  0.00000000E+00
  0.00000000E+00  0.00000000E+00  0.00000000E+00
  0.00000000E+00  0.00000000E+00  0.00000000E+00
  0.00000000E+00  0.00000000E+00  0.00000000E+00
  0.00000000E+00  0.00000000E+00  0.00000000E+00
  0.00000000E+00  0.00000000E+00  0.00000000E+00
  0.00000000E+00  0.00000000E+00  0.00000000E+00
  0.00000000E+00  0.00000000E+00  0.00000000E+00
  0.00000000E+00  0.00000000E+00  0.00000000E+00
