Ov-OH                                   
   1.00000000000000     
    19.0415080000000003    0.0000000000000000    0.0000000000000000
     0.0000000000000000   19.0312209999999986    0.0000000000000000
     0.0000000000000000    0.0000000000000000   18.1449719999999992
   H    C    N    O    Ti
    67    96    12    71    16
Selective dynamics
Direct
  0.5361304530143087  0.1765380235996805  0.5117367491592589   T   T   T
  0.5701284465529690  0.8916493693391588  0.5082056465811884   T   T   T
  0.5879645031508092  0.4180061217781075  0.9646048877319001   T   T   T
  0.6053694213101039  0.0700055368062511  0.9856570286506411   T   T   T
  0.6067109547920317  0.9371454634522658  0.9827287122620031   T   T   T
  0.6195949325633304  0.1348657198861506  0.5113468825350066   T   T   T
  0.6192784146438356  0.8149999530443851  0.8693056452338264   T   T   T
  0.6209805445852840  0.8748677909244181  0.7947379767421299   T   T   T
  0.0668917199724311  0.3854926256914965  0.9864604857071066   T   T   T
  0.6379568322307297  0.8882799570248706  0.2799587480595494   T   T   T
  0.6430269696581604  0.8018740015567916  0.1856244343095444   T   T   T
  0.6505158685821428  0.1889421691389469  0.1921279232242314   T   T   T
  0.6494711274310686  0.1978602385910878  0.8105066574704660   T   T   T
  0.6902888041724743  0.1527926761326367  0.6865629173061505   T   T   T
  0.6956377514316199  0.8876863942859184  0.3566365725438109   T   T   T
  0.6985018821562549  0.1486117160007417  0.3149312716110928   T   T   T
  0.6977348354868664  0.8614429922956882  0.6920526012370281   T   T   T
  0.0749686732310393  0.6116488023934223  0.9873142273688416   T   T   T
  0.0803129083635393  0.0814697138602214  0.5339869035459438   T   T   T
  0.7898928029206342  0.6436080674948926  0.8081882187635329   T   T   T
  0.8062452562299680  0.3524549782869505  0.1862098587941879   T   T   T
  0.8082464515251391  0.6473257158722099  0.1921334732886770   T   T   T
  0.8141393710184920  0.3748570653676875  0.8708096910417695   T   T   T
  0.0823987691729869  0.9212322860908105  0.5339077500981632   T   T   T
  0.8396550030627509  0.6855782375217454  0.6871965269977838   T   T   T
  0.8490401553997332  0.6972418847395034  0.3135967740732742   T   T   T
  0.8609331236647080  0.3009983381928401  0.6916278560039169   T   T   T
  0.8727177754605173  0.3767851313147151  0.7946064940432157   T   T   T
  0.8850033986570138  0.6344609814711984  0.9882370441154522   T   T   T
  0.8858211692665517  0.5624477459348902  0.5102058594197855   T   T   T
  0.8881979930994988  0.3037079280162053  0.3605265438351424   T   T   T
  0.8891851889255700  0.3604472826529703  0.2831785668881220   T   T   T
  0.8922503382600345  0.4300380315381991  0.5097122616517107   T   T   T
  0.9203283821500339  0.0804487186719175  0.5345710213419684   T   T   T
  0.9185552816454660  0.9168882801558186  0.5341098273287319   T   T   T
  0.9341747507468345  0.3914861804209883  0.9860452738379641   T   T   T
  0.9688732609210567  0.6762667527642258  0.9892447554816235   T   T   T
  0.1069743953201350  0.6406497091975627  0.2820117894304596   T   T   T
  0.1095529031228799  0.6975816199233456  0.3592149502525098   T   T   T
  0.1117692251961467  0.5716464656718343  0.5101372167995979   T   T   T
  0.1291400250277788  0.6231255673440952  0.7966369739692793   T   T   T
  0.1356041689469638  0.3811547231731303  0.5099297130958680   T   T   T
  0.1395768749452050  0.6993984495553665  0.6938645300032689   T   T   T
  0.1512129170487657  0.3016306621780787  0.3122680060653224   T   T   T
  0.1530190838189921  0.3102128607466749  0.6877136975159085   T   T   T
  0.1769335153101903  0.4648390969098303  0.5102626682236228   T   T   T
  0.1900732151983995  0.6225353957495396  0.8705662432385981   T   T   T
  0.1929038888191978  0.3501023277466520  0.1904284085581451   T   T   T
  0.1913081743986890  0.6461789115430525  0.1854002176856019   T   T   T
  0.2002692734058016  0.3526873784202059  0.8098547990640474   T   T   T
  0.3052208036177875  0.1431240672236573  0.6888529571078157   T   T   T
  0.3011232774911866  0.8491713586161058  0.3137786944161713   T   T   T
  0.3031338268440483  0.1098899796911407  0.3577155398495374   T   T   T
  0.3126758743053815  0.8443850651361503  0.6847900334668596   T   T   T
  0.3196074993336535  0.0459977901038802  0.9957469915105729   T   T   T
  0.3486172805648377  0.8086019636747115  0.1910251807248601   T   T   T
  0.3560245410677400  0.7981314650439344  0.8070271799127094   T   T   T
  0.3560764908306349  0.1936880108924703  0.1856206826889414   T   T   T
  0.3606589351449573  0.1084932160462673  0.2810063297103915   T   T   T
  0.3643327666542984  0.1278911013864257  0.9964649160965208   T   T   T
  0.3852118353628329  0.1957180549170701  0.8632089322242619   T   T   T
  0.3865888459326798  0.1360903948467031  0.7879351434586924   T   T   T
  0.3804030302040615  0.9364799090480416  0.9915754180368831   T   T   T
  0.4251982662167979  0.5821579757902436  0.9767495160924309   T   T   T
  0.4214147394016424  0.4243184478615232  0.9694952840848969   T   T   T
  0.4290238055615881  0.1115588238209193  0.5107342592856408   T   T   T
  0.4377294474479284  0.8854588589365375  0.5082579031992345   T   T   T
  0.5349838714603744  0.0684090381477223  0.5102688438787141   T   T   T
  0.5380971612357609  0.9394320061802669  0.5087092879316035   T   T   T
  0.5567838070979677  0.0393088541793180  0.9868284251146983   T   T   T
  0.5577017174719866  0.9668879041621502  0.9850545583017575   T   T   T
  0.5741059077522341  0.0042113009033058  0.5093451443827337   T   T   T
  0.0638480140636558  0.5397312519812711  0.5100428438969098   T   T   T
  0.6512089981951623  0.0031597303636486  0.5088587778370462   T   T   T
  0.0688639159320052  0.4655737264177647  0.5097961634548897   T   T   T
  0.6889170492495291  0.7795390017048139  0.2135930679189874   T   T   T
  0.6951206438138898  0.2150017600039550  0.2184194770776342   T   T   T
  0.6901949201548319  0.7921033965911770  0.7873591985059322   T   T   T
  0.7002966875646451  0.2993305952990587  0.1111200414765193   T   T   T
  0.6960057271545744  0.2195814716731522  0.7833639202475143   T   T   T
  0.6906219327475915  0.6991754685283829  0.8887471334374401   T   T   T
  0.6980991021526475  0.6913342837569335  0.1118329773884118   T   T   T
  0.7043216065203943  0.2974230294477717  0.8924124955221194   T   T   T
  0.7114507404067301  0.8091239112464107  0.2813112484086808   T   T   T
  0.7178977738567884  0.1949898745886953  0.7154137387208562   T   T   T
  0.7213592854274439  0.1934507180662736  0.2857205169228915   T   T   T
  0.7177880564550376  0.8136642107815670  0.7184551443889715   T   T   T
  0.7170289714332909  0.7288142250900094  0.8192312273788557   T   T   T
  0.7270935094607661  0.2727568458283821  0.1831162477660630   T   T   T
  0.7234109508144730  0.7225702855524293  0.1823097347306164   T   T   T
  0.7319816141515875  0.2734321066848779  0.8209914924346212   T   T   T
  0.0769806449508523  0.4990471693973193  0.9865460551718526   T   T   T
  0.7703331787949032  0.7775728422790739  0.3176636247157452   T   T   T
  0.7704325098364634  0.7759276825494618  0.6832110879646199   T   T   T
  0.7779504346936341  0.2254014553168196  0.6830165851687942   T   T   T
  0.7706537454248911  0.6917302977122498  0.7820282062947941   T   T   T
  0.7787869707562125  0.2274700129637910  0.3197179244909121   T   T   T
  0.7833822943547292  0.3073964644417036  0.2151677553031509   T   T   T
  0.7821488039033982  0.6923351618431500  0.2176242633948451   T   T   T
  0.7932397552733819  0.3040597960503439  0.7883683771242262   T   T   T
  0.7977675607831664  0.8037753733968381  0.3883334183296104   T   T   T
  0.8039431549533790  0.1997286782307779  0.6105175325303935   T   T   T
  0.7981060848523381  0.8018280405464925  0.6109040508676216   T   T   T
  0.7978938179626187  0.7143254371481587  0.7154823157382252   T   T   T
  0.8041071137870528  0.7197877114431219  0.2843172524297807   T   T   T
  0.8043355190145003  0.2001802652636337  0.3901510048828896   T   T   T
  0.8110497067280267  0.2861866939183493  0.2839257159511150   T   T   T
  0.8144554111956106  0.2786878659219833  0.7185375555090620   T   T   T
  0.8532800226131060  0.5035146346261355  0.9872873152228191   T   T   T
  0.9304260540766406  0.5039198428974652  0.9858008834843820   T   T   T
  0.9360925510724477  0.5347330740043961  0.5101050905065369   T   T   T
  0.9399531124390635  0.4621599239404501  0.5098088005733337   T   T   T
  0.9663055172857459  0.4392186680245734  0.9857858704737604   T   T   T
  0.9692922450450501  0.5683289351645013  0.9859249139606802   T   T   T
  0.9975360831070282  0.6516939385073425  0.5096304215000876   T   T   T
  0.9991886077942047  0.5734989835556301  0.5101122220427908   T   T   T
  0.1546596666622500  0.4982746468676827  0.9882320890513658   T   T   T
  0.1872503830350982  0.7205805101038510  0.7194803777907635   T   T   T
  0.1869591448956158  0.7130445649979471  0.2827098797455947   T   T   T
  0.1948737804835648  0.7989289207768542  0.3895173181743820   T   T   T
  0.1966966140766088  0.2837370080188109  0.7152624931745892   T   T   T
  0.1962086436787320  0.2785846071331118  0.2835299754968532   T   T   T
  0.2007429452611473  0.1975301770828890  0.6099052360540044   T   T   T
  0.1965362957362584  0.7999593920104089  0.6111278418131270   T   T   T
  0.2015551605333152  0.1952881224924669  0.3882957628605130   T   T   T
  0.2101235009079203  0.6940430378785537  0.7883240803515080   T   T   T
  0.2186685631276970  0.3052411693816438  0.2166285576466942   T   T   T
  0.2145995495778833  0.6912104868328677  0.2140798948175019   T   T   T
  0.2199285642792383  0.7713943793076902  0.3185363755311134   T   T   T
  0.2226886949847733  0.3066728778880333  0.7823147583346421   T   T   T
  0.2236282192668654  0.7734787032383652  0.6832852159509457   T   T   T
  0.2275495413175269  0.2243056686140979  0.6819806946482833   T   T   T
  0.2294206218341454  0.2207998714203892  0.3176654585525285   T   T   T
  0.2728591376934107  0.7232066047137237  0.8194133488411282   T   T   T
  0.2768414536768902  0.2735281434975655  0.1818162239716561   T   T   T
  0.2713302582102744  0.7252891084811367  0.1819269649138475   T   T   T
  0.2789231594175602  0.2726267270763439  0.8181631980391448   T   T   T
  0.2827310751972272  0.1893851363205007  0.7160268691673969   T   T   T
  0.2775635625705175  0.8047767393533071  0.2844420113682490   T   T   T
  0.2850237733362955  0.8026258794965941  0.7142840536686501   T   T   T
  0.2881321805189870  0.1882917985424475  0.2820280902001121   T   T   T
  0.3020538498650275  0.6982895829849125  0.8895637332146757   T   T   T
  0.3040706243034567  0.3013323479733011  0.1104505305161605   T   T   T
  0.2984363711081405  0.6982563846713110  0.1104770732261899   T   T   T
  0.3042858489701444  0.3012597215856030  0.8887802632781930   T   T   T
  0.3099480442359681  0.2120152032357277  0.7845922291029497   T   T   T
  0.3084371053890700  0.7771695620127825  0.7812767454091670   T   T   T
  0.3036071881195022  0.7829816543333732  0.2170331395326296   T   T   T
  0.3106522583963975  0.2166002689238436  0.2139007656403328   T   T   T
  0.0039178171348002  0.3490981541118304  0.5086300612492685   T   T   T
  0.3487396578769635  0.9975599596093097  0.5090126701181323   T   T   T
  0.0388513113386886  0.4356018066868593  0.9860696752558978   T   T   T
  0.0432332544828015  0.5636237481974307  0.9864453591661311   T   T   T
  0.4269237413600428  0.9989099587924020  0.5094692149894653   T   T   T
  0.4274240556016750  0.0408985579097035  0.9924953087234460   T   T   T
  0.4292951773971408  0.9668042144180178  0.9900742690848396   T   T   T
  0.4608210528356350  0.0635420991473050  0.5101843604555395   T   T   T
  0.4655465129885398  0.9356918426974493  0.5087741464564270   T   T   T
  0.0047780668384880  0.4262468073885285  0.5095646808264410   T   T   T
  0.4933686809731297  0.0769564310499145  0.9903197946659968   T   T   T
  0.4924349970098715  0.8540663882593927  0.9867197740307341   T   T   T
  0.4928111240577297  0.9312926396854913  0.9867019102713421   T   T   T
  0.4981116223407436  0.1537215915943126  0.9915519732120638   T   T   T
  0.5659757556677469  0.1324187965681466  0.5113144002091952   T   T   T
  0.6400749040021715  0.8316445444510683  0.8205111121530326   T   T   T
  0.6766262151719974  0.8649853775317791  0.3096130563947366   T   T   T
  0.8313340472201299  0.3551920743070078  0.8215132155587175   T   T   T
  0.8657194495199835  0.3221487675856971  0.3132422849695428   T   T   T
  0.9386470416612317  0.6325481653213270  0.9855235659528091   T   T   T
  0.1317300775647496  0.6780533324830381  0.3121814948223416   T   T   T
  0.1329731460005549  0.4347796900029279  0.5098484048885021   T   T   T
  0.1720443629033414  0.6432711435059847  0.8221395817073536   T   T   T
  0.3229852612751481  0.1327731690328731  0.3112145920180600   T   T   T
  0.3631700081081039  0.1755587503105702  0.8163205093499017   T   T   T
  0.3647803835285951  0.0741983651144224  0.9975561309451542   T   T   T
  0.5537998403504109  0.8244175630612859  0.9875996782360968   T   T   T
  0.5583457396833605  0.1828985284438785  0.9913209689845977   T   T   T
  0.0563743341299450  0.6842151775033087  0.5100653933171141   T   T   T
  0.6115994752820061  0.3883956421807556  0.0010854704014692   T   T   T
  0.0630506675367227  0.3158615403743898  0.5078079080444539   T   T   T
  0.6477109681236108  0.2682642966027884  0.0819179381258858   T   T   T
  0.6392659520262839  0.7139692269502984  0.0848591675518210   T   T   T
  0.6425291260919638  0.7323351469220336  0.9255187244306888   T   T   T
  0.6490954295574918  0.2677131487583657  0.9184616070640375   T   T   T
  0.6828207662508227  0.9436699169817652  0.5084641676786156   T   T   T
  0.6847319458013608  0.0620752241612297  0.5089845625546112   T   T   T
  0.6853594340082665  0.4921974431725914  0.9332101012186880   T   T   T
  0.7071477018582498  0.4978281524664338  0.0705290111599075   T   T   T
  0.7309622773746325  0.3521087479929459  0.0830483933993458   T   T   T
  0.7152517424512761  0.6412081129205085  0.9116349870533770   T   T   T
  0.7335196640754288  0.6437466422025995  0.0815141423115452   T   T   T
  0.7365261412331494  0.3471797364230088  0.9258277793346594   T   T   T
  0.7710734587928886  0.1490476151878393  0.5800541744866679   T   T   T
  0.7682304953160400  0.8571708539726064  0.4187067742329462   T   T   T
  0.7684892908268917  0.8555831871418251  0.5825321548100438   T   T   T
  0.7734726848682503  0.1472198615538499  0.4192448421808583   T   T   T
  0.7920483133866656  0.0011615108243325  0.4314195035578257   T   T   T
  0.8112687560402095  0.0019335091735581  0.5664883299812185   T   T   T
  0.8220556689469466  0.5637728685617258  0.9878568495537920   T   T   T
  0.8203663543042932  0.4448876134364615  0.9883261041003698   T   T   T
  0.8503868965927515  0.7727383226226462  0.4179049909411199   T   T   T
  0.8494129279430905  0.7689828882304068  0.5818021137967451   T   T   T
  0.8578606204593702  0.2297379903154880  0.5829526625448211   T   T   T
  0.8574136292665205  0.2297851192488179  0.4212400010507115   T   T   T
  0.8889858662261247  0.8905378076711551  0.4998314808716640   T   T   T
  0.8931547402120164  0.1094521329231455  0.5004836875479093   T   T   T
  0.9378168456748561  0.6822900732549072  0.5087619068894879   T   T   T
  0.9447044279131829  0.3170301187987525  0.5088565920299358   T   T   T
  0.1082230486977248  0.8906333384073001  0.5001929902933056   T   T   T
  0.1099988056650490  0.1074900948118404  0.4995578193062217   T   T   T
  0.1417291400156228  0.7697673252412655  0.4206656479909505   T   T   T
  0.1418366867143185  0.7707415462254793  0.5844979274105616   T   T   T
  0.1501198833868455  0.2304427283970561  0.5795808501045548   T   T   T
  0.1489432512413619  0.2266889501908610  0.4173890998915968   T   T   T
  0.1857732111619460  0.4390087406320939  0.9896078774602931   T   T   T
  0.1866755516579193  0.5576317914244023  0.9880202920350849   T   T   T
  0.1894575546743273  0.9963604306102248  0.5662440602360918   T   T   T
  0.2093392801934248  0.9977588727574247  0.4312941214078215   T   T   T
  0.2266193833826411  0.8514439899272181  0.4182920597320696   T   T   T
  0.2303002489871006  0.1431918214341485  0.5826616990053661   T   T   T
  0.2306742508695009  0.1419285792404406  0.4192653134716263   T   T   T
  0.2298180886822105  0.8501840695037749  0.5805228673679090   T   T   T
  0.2713357621593295  0.6475343187342640  0.9232504332758135   T   T   T
  0.2723810000886003  0.3532308435772611  0.0807927551801964   T   T   T
  0.2733331424974006  0.3549549348054959  0.9162774803954142   T   T   T
  0.2704045496821447  0.6432834046160574  0.0837366633731994   T   T   T
  0.2920340736266716  0.4982546090011338  0.0698722960437614   T   T   T
  0.3142708468438577  0.5001585293632175  0.9353560131886277   T   T   T
  0.3166251528395344  0.0566610140391186  0.5091552210172963   T   T   T
  0.3177080096521058  0.9380382421060365  0.5084575303307364   T   T   T
  0.0042018092650154  0.1885831973280589  0.5657806816790226   T   T   T
  0.3574202432949442  0.7281071196560756  0.9153227722780289   T   T   T
  0.3490485720112080  0.7310373201443420  0.0792521501013571   T   T   T
  0.3566017071824816  0.2712819534108223  0.9205677800361105   T   T   T
  0.3580296270314920  0.2721773987467073  0.0825647531715676   T   T   T
  0.0021388802601957  0.2084116674384967  0.4307942634679068   T   T   T
  0.9950661558346785  0.8110523060032268  0.5664494653779348   T   T   T
  0.3928267610672800  0.6103767637401432  0.0063560732224674   T   T   T
  0.3937993097722299  0.3943354555122732  0.0022407098969760   T   T   T
  0.4354072616459212  0.8200290260723048  0.9859429758103059   T   T   T
  0.4399749287975449  0.1885139854336540  0.9918655221300231   T   T   T
  0.4947615895151550  0.7231105857087022  0.0730614837897052   T   T   T
  0.9971847812307635  0.7909449850154056  0.4317540257194923   T   T   T
  0.5030630276254699  0.3114094316541821  0.9341681146373880   T   T   T
  0.5026416656782209  0.6863335062821371  0.9432933253790826   T   T   T
  0.5039640679073188  0.2937048600101516  0.0697024313676851   T   T   T
  0.5685712077707537  0.7244939700725221  0.0065497369516822   T   T   T
  0.5770701088052346  0.2894240010018247  0.9995391451323306   T   T   T
  0.0688127127520250  0.7913179976718635  0.5023913646193668   T   T   T
  0.7146802050322181  0.5684088147664618  0.9964027331104020   T   T   T
  0.7123294205582986  0.4263480270192806  0.0023236486408667   T   T   T
  0.0759255486180976  0.2090911572811318  0.4976524819913934   T   T   T
  0.7893279694632690  0.9291592239952700  0.5014584887395195   T   T   T
  0.7919023102386191  0.0747889645232994  0.4990449733927771   T   T   T
  0.9228966955195274  0.7888844520950249  0.4986310253540491   T   T   T
  0.9304371103745700  0.2100933125616867  0.5016970629383964   T   T   T
  0.2098241169505493  0.0697536572046803  0.5015681424364993   T   T   T
  0.2106917535254121  0.9239766426937852  0.4986856563992494   T   T   T
  0.2923385227729943  0.5711033379280148  0.0025339348614099   T   T   T
  0.2919357634278286  0.4256729394597280  0.9996847794693903   T   T   T
  0.4236881911711945  0.7115461279311223  0.0019351646101569   T   T   T
  0.4317800567782086  0.2951370637166597  0.0023279529560533   T   T   T
 
  0.00000000E+00  0.00000000E+00  0.00000000E+00
  0.00000000E+00  0.00000000E+00  0.00000000E+00
  0.00000000E+00  0.00000000E+00  0.00000000E+00
  0.00000000E+00  0.00000000E+00  0.00000000E+00
  0.00000000E+00  0.00000000E+00  0.00000000E+00
  0.00000000E+00  0.00000000E+00  0.00000000E+00
  0.00000000E+00  0.00000000E+00  0.00000000E+00
  0.00000000E+00  0.00000000E+00  0.00000000E+00
  0.00000000E+00  0.00000000E+00  0.00000000E+00
  0.00000000E+00  0.00000000E+00  0.00000000E+00
  0.00000000E+00  0.00000000E+00  0.00000000E+00
  0.00000000E+00  0.00000000E+00  0.00000000E+00
  0.00000000E+00  0.00000000E+00  0.00000000E+00
  0.00000000E+00  0.00000000E+00  0.00000000E+00
  0.00000000E+00  0.00000000E+00  0.00000000E+00
  0.00000000E+00  0.00000000E+00  0.00000000E+00
  0.00000000E+00  0.00000000E+00  0.00000000E+00
  0.00000000E+00  0.00000000E+00  0.00000000E+00
  0.00000000E+00  0.00000000E+00  0.00000000E+00
  0.00000000E+00  0.00000000E+00  0.00000000E+00
  0.00000000E+00  0.00000000E+00  0.00000000E+00
  0.00000000E+00  0.00000000E+00  0.00000000E+00
  0.00000000E+00  0.00000000E+00  0.00000000E+00
  0.00000000E+00  0.00000000E+00  0.00000000E+00
  0.00000000E+00  0.00000000E+00  0.00000000E+00
  0.00000000E+00  0.00000000E+00  0.00000000E+00
  0.00000000E+00  0.00000000E+00  0.00000000E+00
  0.00000000E+00  0.00000000E+00  0.00000000E+00
  0.00000000E+00  0.00000000E+00  0.00000000E+00
  0.00000000E+00  0.00000000E+00  0.00000000E+00
  0.00000000E+00  0.00000000E+00  0.00000000E+00
  0.00000000E+00  0.00000000E+00  0.00000000E+00
  0.00000000E+00  0.00000000E+00  0.00000000E+00
  0.00000000E+00  0.00000000E+00  0.00000000E+00
  0.00000000E+00  0.00000000E+00  0.00000000E+00
  0.00000000E+00  0.00000000E+00  0.00000000E+00
  0.00000000E+00  0.00000000E+00  0.00000000E+00
  0.00000000E+00  0.00000000E+00  0.00000000E+00
  0.00000000E+00  0.00000000E+00  0.00000000E+00
  0.00000000E+00  0.00000000E+00  0.00000000E+00
  0.00000000E+00  0.00000000E+00  0.00000000E+00
  0.00000000E+00  0.00000000E+00  0.00000000E+00
  0.00000000E+00  0.00000000E+00  0.00000000E+00
  0.00000000E+00  0.00000000E+00  0.00000000E+00
  0.00000000E+00  0.00000000E+00  0.00000000E+00
  0.00000000E+00  0.00000000E+00  0.00000000E+00
  0.00000000E+00  0.00000000E+00  0.00000000E+00
  0.00000000E+00  0.00000000E+00  0.00000000E+00
  0.00000000E+00  0.00000000E+00  0.00000000E+00
  0.00000000E+00  0.00000000E+00  0.00000000E+00
  0.00000000E+00  0.00000000E+00  0.00000000E+00
  0.00000000E+00  0.00000000E+00  0.00000000E+00
  0.00000000E+00  0.00000000E+00  0.00000000E+00
  0.00000000E+00  0.00000000E+00  0.00000000E+00
  0.00000000E+00  0.00000000E+00  0.00000000E+00
  0.00000000E+00  0.00000000E+00  0.00000000E+00
  0.00000000E+00  0.00000000E+00  0.00000000E+00
  0.00000000E+00  0.00000000E+00  0.00000000E+00
  0.00000000E+00  0.00000000E+00  0.00000000E+00
  0.00000000E+00  0.00000000E+00  0.00000000E+00
  0.00000000E+00  0.00000000E+00  0.00000000E+00
  0.00000000E+00  0.00000000E+00  0.00000000E+00
  0.00000000E+00  0.00000000E+00  0.00000000E+00
  0.00000000E+00  0.00000000E+00  0.00000000E+00
  0.00000000E+00  0.00000000E+00  0.00000000E+00
  0.00000000E+00  0.00000000E+00  0.00000000E+00
  0.00000000E+00  0.00000000E+00  0.00000000E+00
  0.00000000E+00  0.00000000E+00  0.00000000E+00
  0.00000000E+00  0.00000000E+00  0.00000000E+00
  0.00000000E+00  0.00000000E+00  0.00000000E+00
  0.00000000E+00  0.00000000E+00  0.00000000E+00
  0.00000000E+00  0.00000000E+00  0.00000000E+00
  0.00000000E+00  0.00000000E+00  0.00000000E+00
  0.00000000E+00  0.00000000E+00  0.00000000E+00
  0.00000000E+00  0.00000000E+00  0.00000000E+00
  0.00000000E+00  0.00000000E+00  0.00000000E+00
  0.00000000E+00  0.00000000E+00  0.00000000E+00
  0.00000000E+00  0.00000000E+00  0.00000000E+00
  0.00000000E+00  0.00000000E+00  0.00000000E+00
  0.00000000E+00  0.00000000E+00  0.00000000E+00
  0.00000000E+00  0.00000000E+00  0.00000000E+00
  0.00000000E+00  0.00000000E+00  0.00000000E+00
  0.00000000E+00  0.00000000E+00  0.00000000E+00
  0.00000000E+00  0.00000000E+00  0.00000000E+00
  0.00000000E+00  0.00000000E+00  0.00000000E+00
  0.00000000E+00  0.00000000E+00  0.00000000E+00
  0.00000000E+00  0.00000000E+00  0.00000000E+00
  0.00000000E+00  0.00000000E+00  0.00000000E+00
  0.00000000E+00  0.00000000E+00  0.00000000E+00
  0.00000000E+00  0.00000000E+00  0.00000000E+00
  0.00000000E+00  0.00000000E+00  0.00000000E+00
  0.00000000E+00  0.00000000E+00  0.00000000E+00
  0.00000000E+00  0.00000000E+00  0.00000000E+00
  0.00000000E+00  0.00000000E+00  0.00000000E+00
  0.00000000E+00  0.00000000E+00  0.00000000E+00
  0.00000000E+00  0.00000000E+00  0.00000000E+00
  0.00000000E+00  0.00000000E+00  0.00000000E+00
  0.00000000E+00  0.00000000E+00  0.00000000E+00
  0.00000000E+00  0.00000000E+00  0.00000000E+00
  0.00000000E+00  0.00000000E+00  0.00000000E+00
  0.00000000E+00  0.00000000E+00  0.00000000E+00
  0.00000000E+00  0.00000000E+00  0.00000000E+00
  0.00000000E+00  0.00000000E+00  0.00000000E+00
  0.00000000E+00  0.00000000E+00  0.00000000E+00
  0.00000000E+00  0.00000000E+00  0.00000000E+00
  0.00000000E+00  0.00000000E+00  0.00000000E+00
  0.00000000E+00  0.00000000E+00  0.00000000E+00
  0.00000000E+00  0.00000000E+00  0.00000000E+00
  0.00000000E+00  0.00000000E+00  0.00000000E+00
  0.00000000E+00  0.00000000E+00  0.00000000E+00
  0.00000000E+00  0.00000000E+00  0.00000000E+00
  0.00000000E+00  0.00000000E+00  0.00000000E+00
  0.00000000E+00  0.00000000E+00  0.00000000E+00
  0.00000000E+00  0.00000000E+00  0.00000000E+00
  0.00000000E+00  0.00000000E+00  0.00000000E+00
  0.00000000E+00  0.00000000E+00  0.00000000E+00
  0.00000000E+00  0.00000000E+00  0.00000000E+00
  0.00000000E+00  0.00000000E+00  0.00000000E+00
  0.00000000E+00  0.00000000E+00  0.00000000E+00
  0.00000000E+00  0.00000000E+00  0.00000000E+00
  0.00000000E+00  0.00000000E+00  0.00000000E+00
  0.00000000E+00  0.00000000E+00  0.00000000E+00
  0.00000000E+00  0.00000000E+00  0.00000000E+00
  0.00000000E+00  0.00000000E+00  0.00000000E+00
  0.00000000E+00  0.00000000E+00  0.00000000E+00
  0.00000000E+00  0.00000000E+00  0.00000000E+00
  0.00000000E+00  0.00000000E+00  0.00000000E+00
  0.00000000E+00  0.00000000E+00  0.00000000E+00
  0.00000000E+00  0.00000000E+00  0.00000000E+00
  0.00000000E+00  0.00000000E+00  0.00000000E+00
  0.00000000E+00  0.00000000E+00  0.00000000E+00
  0.00000000E+00  0.00000000E+00  0.00000000E+00
  0.00000000E+00  0.00000000E+00  0.00000000E+00
  0.00000000E+00  0.00000000E+00  0.00000000E+00
  0.00000000E+00  0.00000000E+00  0.00000000E+00
  0.00000000E+00  0.00000000E+00  0.00000000E+00
  0.00000000E+00  0.00000000E+00  0.00000000E+00
  0.00000000E+00  0.00000000E+00  0.00000000E+00
  0.00000000E+00  0.00000000E+00  0.00000000E+00
  0.00000000E+00  0.00000000E+00  0.00000000E+00
  0.00000000E+00  0.00000000E+00  0.00000000E+00
  0.00000000E+00  0.00000000E+00  0.00000000E+00
  0.00000000E+00  0.00000000E+00  0.00000000E+00
  0.00000000E+00  0.00000000E+00  0.00000000E+00
  0.00000000E+00  0.00000000E+00  0.00000000E+00
  0.00000000E+00  0.00000000E+00  0.00000000E+00
  0.00000000E+00  0.00000000E+00  0.00000000E+00
  0.00000000E+00  0.00000000E+00  0.00000000E+00
  0.00000000E+00  0.00000000E+00  0.00000000E+00
  0.00000000E+00  0.00000000E+00  0.00000000E+00
  0.00000000E+00  0.00000000E+00  0.00000000E+00
  0.00000000E+00  0.00000000E+00  0.00000000E+00
  0.00000000E+00  0.00000000E+00  0.00000000E+00
  0.00000000E+00  0.00000000E+00  0.00000000E+00
  0.00000000E+00  0.00000000E+00  0.00000000E+00
  0.00000000E+00  0.00000000E+00  0.00000000E+00
  0.00000000E+00  0.00000000E+00  0.00000000E+00
  0.00000000E+00  0.00000000E+00  0.00000000E+00
  0.00000000E+00  0.00000000E+00  0.00000000E+00
  0.00000000E+00  0.00000000E+00  0.00000000E+00
  0.00000000E+00  0.00000000E+00  0.00000000E+00
  0.00000000E+00  0.00000000E+00  0.00000000E+00
  0.00000000E+00  0.00000000E+00  0.00000000E+00
  0.00000000E+00  0.00000000E+00  0.00000000E+00
  0.00000000E+00  0.00000000E+00  0.00000000E+00
  0.00000000E+00  0.00000000E+00  0.00000000E+00
  0.00000000E+00  0.00000000E+00  0.00000000E+00
  0.00000000E+00  0.00000000E+00  0.00000000E+00
  0.00000000E+00  0.00000000E+00  0.00000000E+00
  0.00000000E+00  0.00000000E+00  0.00000000E+00
  0.00000000E+00  0.00000000E+00  0.00000000E+00
  0.00000000E+00  0.00000000E+00  0.00000000E+00
  0.00000000E+00  0.00000000E+00  0.00000000E+00
  0.00000000E+00  0.00000000E+00  0.00000000E+00
  0.00000000E+00  0.00000000E+00  0.00000000E+00
  0.00000000E+00  0.00000000E+00  0.00000000E+00
  0.00000000E+00  0.00000000E+00  0.00000000E+00
  0.00000000E+00  0.00000000E+00  0.00000000E+00
  0.00000000E+00  0.00000000E+00  0.00000000E+00
  0.00000000E+00  0.00000000E+00  0.00000000E+00
  0.00000000E+00  0.00000000E+00  0.00000000E+00
  0.00000000E+00  0.00000000E+00  0.00000000E+00
  0.00000000E+00  0.00000000E+00  0.00000000E+00
  0.00000000E+00  0.00000000E+00  0.00000000E+00
  0.00000000E+00  0.00000000E+00  0.00000000E+00
  0.00000000E+00  0.00000000E+00  0.00000000E+00
  0.00000000E+00  0.00000000E+00  0.00000000E+00
  0.00000000E+00  0.00000000E+00  0.00000000E+00
  0.00000000E+00  0.00000000E+00  0.00000000E+00
  0.00000000E+00  0.00000000E+00  0.00000000E+00
  0.00000000E+00  0.00000000E+00  0.00000000E+00
  0.00000000E+00  0.00000000E+00  0.00000000E+00
  0.00000000E+00  0.00000000E+00  0.00000000E+00
  0.00000000E+00  0.00000000E+00  0.00000000E+00
  0.00000000E+00  0.00000000E+00  0.00000000E+00
  0.00000000E+00  0.00000000E+00  0.00000000E+00
  0.00000000E+00  0.00000000E+00  0.00000000E+00
  0.00000000E+00  0.00000000E+00  0.00000000E+00
  0.00000000E+00  0.00000000E+00  0.00000000E+00
  0.00000000E+00  0.00000000E+00  0.00000000E+00
  0.00000000E+00  0.00000000E+00  0.00000000E+00
  0.00000000E+00  0.00000000E+00  0.00000000E+00
  0.00000000E+00  0.00000000E+00  0.00000000E+00
  0.00000000E+00  0.00000000E+00  0.00000000E+00
  0.00000000E+00  0.00000000E+00  0.00000000E+00
  0.00000000E+00  0.00000000E+00  0.00000000E+00
  0.00000000E+00  0.00000000E+00  0.00000000E+00
  0.00000000E+00  0.00000000E+00  0.00000000E+00
  0.00000000E+00  0.00000000E+00  0.00000000E+00
  0.00000000E+00  0.00000000E+00  0.00000000E+00
  0.00000000E+00  0.00000000E+00  0.00000000E+00
  0.00000000E+00  0.00000000E+00  0.00000000E+00
  0.00000000E+00  0.00000000E+00  0.00000000E+00
  0.00000000E+00  0.00000000E+00  0.00000000E+00