MIL-177-LT_Oaxial                       
   1.00000000000000     
    19.5672369999999987  -11.2971489999999992    0.0000000000000000
     0.0000000000000000   22.5942989999999995    0.0000000000000000
     0.0000000000000000    0.0000000000000000   12.3059999999999992
   H    C    O    Ti
    60   114   101    24
Selective dynamics
Direct
  0.3836683859224301  0.1115306962281866  0.6111972256581553   T   T   T
  0.8874309181617670  0.2709339387186538  0.6119427737442004   T   T   T
  0.7243101814031799  0.6134571834460616  0.6095752761697077   T   T   T
  0.6128702285258867  0.8893047695885901  0.6085948743176652   T   T   T
  0.1097310277833112  0.7270262652983371  0.6096699934431714   T   T   T
  0.2740067779841136  0.3881623829223309  0.6181271008734790   T   T   T
  0.1094856502672353  0.3831782005029219  0.3963267740041713   T   T   T
  0.2750948674676957  0.8896875333180400  0.3912606453527673   T   T   T
  0.6134412780153193  0.7244450186687128  0.3884270036383792   T   T   T
  0.8887668126549230  0.6147866257108785  0.3893537661820196   T   T   T
  0.7229883969100852  0.1100078661225486  0.3903082804298491   T   T   T
  0.3853991562486672  0.2754246590222342  0.3993320969507639   T   T   T
  0.6132819400085583  0.8885782329969806  0.3897243499034156   T   T   T
  0.1101989967505040  0.7265172888968179  0.3911060293968672   T   T   T
  0.2753710903023651  0.3870119046529463  0.3940258421915778   T   T   T
  0.3847433070901626  0.1110605231848243  0.3910533945172475   T   T   T
  0.8880294692683073  0.2708761329870832  0.3927841052189209   T   T   T
  0.7236116150040577  0.6132280806371826  0.3901371657774421   T   T   T
  0.8882695030754107  0.6142634850169344  0.6098951680014280   T   T   T
  0.7233710733852304  0.1107677827237132  0.6102343557343234   T   T   T
  0.3859125524867330  0.2785205844447040  0.6165876516917526   T   T   T
  0.1089510804567980  0.3837547683787590  0.6153840233563901   T   T   T
  0.2759828947551163  0.8901723572215487  0.6090651445601085   T   T   T
  0.6137539239695503  0.7243010113485807  0.6084136884440414   T   T   T
  0.4306991957245148  0.0016130209172621  0.8496703771468377   T   T   T
 -0.0044104627216976  0.4293214608007208  0.8488209779265450   T   T   T
  0.5699050946607146  0.5703747651762372  0.8509340896902123   T   T   T
  0.5690584970693983  0.9990035296380538  0.8515258887182602   T   T   T
  0.0004625311423724  0.5743760567002653  0.8540119632873736   T   T   T
  0.4294906437567834  0.4325481497185342  0.8582478799593015   T   T   T
  0.9992161989493252  0.4273614597098500  0.1545732805506860   T   T   T
  0.4309281484021562  0.0009131068193409  0.1519716584553777   T   T   T
  0.5697587256322078  0.5695007504120769  0.1476782254239254   T   T   T
  0.0008371299528562  0.5741035076726055  0.1462473582503170   T   T   T
  0.5698038007235032 -0.0010165456146280  0.1473074786853828   T   T   T
  0.4298493069127473  0.4274916045280537  0.1538156542119257   T   T   T
  0.2324631535077335  0.9544350127649958  0.5005741725903770   T   T   T
  0.0444985364378453  0.2760428645561023  0.5047167544221981   T   T   T
  0.7204335533744698  0.7660486550360522  0.4992255277781267   T   T   T
  0.7655766412213735  0.0457591160386651  0.4995771659542860   T   T   T
  0.9525883404091219  0.7213677803090738  0.4994226748115631   T   T   T
  0.2779409916204925  0.2353789549051934  0.5092956592965152   T   T   T
  0.9532522402149005  0.2300084025767803  0.5044218867702013   T   T   T
  0.2775841969702519  0.0457055590394253  0.5000105257996501   T   T   T
  0.7659367597448679  0.7203207425571676  0.4984409088125337   T   T   T
  0.0437760102034998  0.7679359716938987  0.5001137037744285   T   T   T
  0.7203407479849864  0.9545335789486952  0.5006592075156113   T   T   T
  0.2332035149601494  0.2818397785137912  0.5063261888512692   T   T   T
  0.4643074801616823  0.6660458492801692  0.4990665421432445   T   T   T
  0.2089358596774050  0.5693162363349122  0.4624585143276504   T   T   T
  0.5341797915701675  0.2027679944777938  0.5050079482701455   T   T   T
  0.6466794444413455  0.4362328297404723  0.4978586659816470   T   T   T
  0.7965956597656856  0.3174545697015631  0.5044076909113784   T   T   T
  0.3272185615386732  0.7968986055747295  0.5022124858131422   T   T   T
  0.3227091120278829  0.1629624936528258  0.0018105315248807   T   T   T
  0.1643627361620428  0.3287554642993691 -0.0202727379509958   T   T   T
  0.1659863701008431  0.8454046279401740  0.0027812455724975   T   T   T
  0.8351844075390665  0.1592652368462906  0.9988028085801710   T   T   T
  0.8377954904300368  0.6761666228145563  0.0003520131322039   T   T   T
  0.6763641382832590  0.8400169761945291 -0.0019033076454154   T   T   T
  0.3736311216222015  0.0623196524015347  0.6443523527573729   T   T   T
  0.4125249937434451  0.0627324115862637  0.7331744080214571   T   T   T
  0.4648097691511416  0.1290939003562262  0.7795402174083618   T   T   T
  0.9363703378782325  0.3101636686404418  0.6458427401927791   T   T   T
  0.9353839587082546  0.3491297170042765  0.7333340121243770   T   T   T
  0.8691379182667275  0.3359342362581308  0.7782831838401303   T   T   T
  0.6860040790725270  0.6245892089072795  0.6432720133797615   T   T   T
  0.6478090608526836  0.5865432765099396  0.7329332727919413   T   T   T
  0.6613473642663759  0.5337676451200423  0.7789950518335145   T   T   T
  0.6240877117574081  0.9385807050197158  0.6430890029875640   T   T   T
  0.5857720305462196  0.9381628161084717  0.7325899247921872   T   T   T
  0.5330008848396880  0.8715806448606821  0.7775261483368194   T   T   T
  0.0605390665060389  0.6888285462252720  0.6442595597243914   T   T   T
  0.0611323061158321  0.6516738568844807  0.7346956015154591   T   T   T
  0.1276508056247526  0.6658321101096899  0.7806022393616742   T   T   T
  0.3125679938787326  0.3772716952461354  0.6514767672234583   T   T   T
  0.3509479695889354  0.4156702890581804  0.7408233129240778   T   T   T
  0.3367827704720527  0.4677163204800546  0.7875696418196174   T   T   T
  0.0602715723684080  0.3721381602354569  0.3617291116785427   T   T   T
  0.0603910869582608  0.4105189317231754  0.2726117211923379   T   T   T
  0.1258336789829768  0.4628957969541114  0.2240167003996766   T   T   T
  0.3134723958370790  0.9390952960145159  0.3575861173901155   T   T   T
  0.3525140089679373  0.9393008121998022  0.2691902609697331   T   T   T
  0.3402311780488207  0.8733892782363180  0.2235531492128296   T   T   T
  0.6243219351757027  0.6859360908182802  0.3548799257197603   T   T   T
  0.5860702196259695  0.6475953910899340  0.2654267351969133   T   T   T
  0.5331469809123467  0.6608838754692988  0.2193977941468443   T   T   T
  0.9383033653210638  0.6266960967247577  0.3550878595602799   T   T   T
  0.9387156398926129  0.5892135824851699  0.2648798853962323   T   T   T
  0.8727397579627580  0.5358478591888114  0.2191661821532375   T   T   T
  0.6851658325911556  0.0606102944654036  0.3558738308197295   T   T   T
  0.6471423740131651  0.0605903821005349  0.2661634870803010   T   T   T
  0.6603291243490287  0.1269116766529769  0.2210225439737808   T   T   T
  0.3745487672342721  0.3135319260346606  0.3639398180664103   T   T   T
  0.4128406413230133  0.3506456556557394  0.2736634350994448   T   T   T
  0.4655145456378138  0.3370403846713649  0.2272347869109299   T   T   T
  0.6244352575271734  0.9379110860181223  0.3555563466182396   T   T   T
  0.5864384257602723  0.9377585190893170  0.2656410256423215   T   T   T
  0.5337236195979660  0.8715478177656806  0.2193613068684227   T   T   T
  0.0610335647302958  0.6885594939528583  0.3561431543533320   T   T   T
  0.0615737666367652  0.6511768916554390  0.2658917706645579   T   T   T
  0.1278910036100644  0.6646536271138395  0.2201805008272525   T   T   T
  0.3134726190534718  0.3753135413812650  0.3611362977166341   T   T   T
  0.3516923563582972  0.4122750147601865  0.2708877773510696   T   T   T
  0.3378475291692506  0.4635325218552692  0.2214387206312918   T   T   T
  0.3741838557500499  0.0617902164868324  0.3574231784387403   T   T   T
  0.4131283425512184  0.0620452000285670  0.2688800608956162   T   T   T
  0.4661280374820986  0.1282932281851728  0.2236155723658715   T   T   T
  0.9373477940561121  0.3098832173292504  0.3596984123323471   T   T   T
  0.9373534279701604  0.3484811033701602  0.2706719263187614   T   T   T
  0.8713886435115674  0.3354671315171758  0.2235928547606744   T   T   T
  0.6854094673520562  0.6243217193250158  0.3558689744093856   T   T   T
  0.6473138967712266  0.5859909199758770  0.2664965112478352   T   T   T
  0.6610498035475333  0.5332428399046368  0.2211587151619148   T   T   T
  0.9378089102352714  0.6263765765717676  0.6444108465693063   T   T   T
  0.9382394921785001  0.5889919022885141  0.7348398045250688   T   T   T
  0.8722648149314022  0.5353919955451582  0.7803983136143382   T   T   T
  0.6852938589495334  0.0612900257126400  0.6440884921461678   T   T   T
  0.6470191214690381  0.0609742360454229  0.7337973757909841   T   T   T
  0.6599516622122967  0.1269713361677469  0.7800377771190220   T   T   T
  0.3745591748095848  0.3165595052608746  0.6507431662498576   T   T   T
  0.4127291753641160  0.3546145008384299  0.7402178113853317   T   T   T
  0.4652463212919349  0.3406344724178739  0.7858299889916541   T   T   T
  0.0591656333292660  0.3725707431442433  0.6476798890481490   T   T   T
  0.0581494141714723  0.4118078541691277  0.7348632626094651   T   T   T
  0.1231162719755525  0.4661246865846872  0.7818628889039139   T   T   T
  0.3139669073895243  0.9396487898534388  0.6430904437913747   T   T   T
  0.3528423367852727  0.9398776424286035  0.7316975720488613   T   T   T
  0.3401728237302653  0.8736023580223643  0.7767210673698780   T   T   T
  0.6246936960163878  0.6859784829752084  0.6425993183656875   T   T   T
  0.5863803279696631  0.6479785522902093  0.7321036111509738   T   T   T
  0.5336092100779360  0.6617878799856720  0.7770829616948728   T   T   T
  0.3795792203120692  0.1912955351950552  0.0027280847156380   T   T   T
  0.8072020235896389  0.1881447759339048 -0.0005633822679622   T   T   T
  0.8093953116618052  0.6193051901661560  0.0002828410656237   T   T   T
  0.6195093272395040  0.8114789728364961 -0.0023197771582993   T   T   T
  0.1932670354868607  0.8158045999495016  0.0020604968432417   T   T   T
  0.1903906027109397  0.3855383183498927 -0.0195767934235446   T   T   T
  0.2838511477457591  0.0002815798092791  0.5003988430921505   T   T   T
 -0.0012911379395745  0.2816793175601664  0.5043605523704531   T   T   T
  0.7144091509741991  0.7144524232419005  0.4989571005139835   T   T   T
  0.7141217240850201 -0.0000126908254393  0.4999623321501346   T   T   T
  0.9985832635269228  0.7160703704383526  0.4998168446802898   T   T   T
  0.2844980199590976  0.2871852778986902  0.5074984961415899   T   T   T
  0.3231415410015944  0.0007930459301548  0.5998187253801428   T   T   T
  0.4014323513319554  0.0014274691051203  0.7787320572813238   T   T   T
  0.9982111321678072  0.3207847093681137  0.6033286027261362   T   T   T
  0.9962553745243320  0.3994843299034033  0.7793561125933461   T   T   T
  0.6757117448925409  0.6755711803881014  0.5986525982485930   T   T   T
  0.5986802458218374  0.5989756461651063  0.7793250538552209   T   T   T
  0.6751662225632553  0.0000904675078524  0.5994228766163344   T   T   T
  0.5979673342420618  0.9993540334061686  0.7799878399185067   T   T   T
  0.9989004878147836  0.6775893091917568  0.5997712352081173   T   T   T
 -0.0000592671595738  0.6024790004169266  0.7819826525377678   T   T   T
  0.3232932509390415  0.3266026664799278  0.6068387259109168   T   T   T
  0.4004622512763826  0.4037100656157530  0.7869834487568814   T   T   T
  0.9986901354246116  0.3205419690206812  0.4047073244586643   T   T   T
  0.9989546512380220  0.3981259369973095  0.2255699496104546   T   T   T
  0.3230880857231944  0.0003497372715651  0.4012021144712186   T   T   T
  0.4015668980766367  0.0007955158705716  0.2227183023561005   T   T   T
  0.6752578728363722  0.6755801742778981  0.3995142144083804   T   T   T
  0.5983763159576657  0.5983525309068619  0.2192215838937641   T   T   T
  0.9993837496229149  0.6777191283366344  0.4000369245212147   T   T   T
  0.0003876814027137  0.6022824254970890  0.2182247645680568   T   T   T
  0.6751550325959702 -0.0006224631586455  0.4000566513812951   T   T   T
  0.5984979680753142 -0.0008726282729368  0.2189978296532900   T   T   T
  0.3237854461636571  0.3247689068190536  0.4073248991297003   T   T   T
  0.4008886001578482  0.3995550348121871  0.2256545884001713   T   T   T
  0.5578979816145248  0.2593182781911702  0.5034551507025193   T   T   T
  0.7401064992425280  0.2945220588490935  0.5021944135440576   T   T   T
  0.2973200559511540  0.7401177170273745  0.5007083048521640   T   T   T
  0.2544369362271838  0.5640001446352771  0.4775633613206229   T   T   T
  0.4404376574745795  0.6987790836095508  0.4976828924667405   T   T   T
  0.6939185578965152  0.4326564555472424  0.4995404353873839   T   T   T
  0.4873965849510494  0.1279564382619266  0.8746052182549372   T   T   T
  0.4834381419431891  0.1823722342107867  0.7227769037531461   T   T   T
  0.8703045651511180  0.3598136289967764  0.8732084375358828   T   T   T
  0.8160848577599270  0.3020883412003042  0.7207923341573091   T   T   T
  0.6377584192964807  0.5110757144609663  0.8741100376272261   T   T   T
  0.6955334366365993  0.5149535783195832  0.7216271616149862   T   T   T
  0.5091982639838987  0.8727426625622620  0.8719042496362638   T   T   T
  0.5152889807425238  0.8185793218438729  0.7212740790592271   T   T   T
  0.1265127462110351  0.6423430334040529  0.8758535924147138   T   T   T
  0.1807296188072029  0.7000833158881917  0.7234640058976486   T   T   T
  0.3659644542506656  0.4951409350562349  0.8782559704094288   T   T   T
  0.2966867041968348  0.4820010267534074  0.7382649888169038   T   T   T
  0.1216185334102538  0.4839707346459923  0.1296931179196734   T   T   T
  0.1811152716492407  0.4832551275967536  0.2762290690169839   T   T   T
  0.3640911809206153  0.8748607007775223  0.1286507202945391   T   T   T
  0.3067250097125242  0.8202813243472805  0.2813790268478262   T   T   T
  0.5112091950166880  0.6381432801805541  0.1235817048750524   T   T   T
  0.5132824358302238  0.6939622284355924  0.2774405759877702   T   T   T
  0.8741116740955674  0.5119236937554592  0.1251431128250258   T   T   T
  0.8194003008547707  0.5172579269597150  0.2753180950425770   T   T   T
  0.6356588346736873  0.1260269648342562  0.1267324968209624   T   T   T
  0.6952322150517056  0.1799393967755010  0.2778769798674897   T   T   T
  0.4887524141745769  0.3619630292662818  0.1328146328352002   T   T   T
  0.4838019444204728  0.3020146440642895  0.2831314366356338   T   T   T
  0.5107750871735495  0.8731236785587647  0.1247538707400441   T   T   T
  0.5150394617348057  0.8181528061407681  0.2756693112783306   T   T   T
  0.1267941202053676  0.6409973716814100  0.1252213175006258   T   T   T
  0.1810748770963834  0.6985533244395665  0.2775609287742596   T   T   T
  0.3681076243363822  0.4885854803064165  0.1286533220805897   T   T   T
  0.2984793613643633  0.4797325061076176  0.2670024668714711   T   T   T
  0.4880670071745054  0.1274587502922515  0.1279221515258036   T   T   T
  0.4859097125448843  0.1810741640196078  0.2820138464466844   T   T   T
  0.8727536120701379  0.3587795238104496  0.1281316610858866   T   T   T
  0.8180933812040735  0.3020156037867806  0.2808544833009309   T   T   T
  0.6376805456805275  0.5107677804007038  0.1259486283161448   T   T   T
  0.6951372157185806  0.5144231273949639  0.2787632081190014   T   T   T
  0.8735892349518285  0.5113718166628456  0.8744424687505904   T   T   T
  0.8189090876791274  0.5166930559918111  0.7242368348976900   T   T   T
  0.6357467510050042  0.1258007145510905  0.8748505081659919   T   T   T
  0.6941832008106806  0.1802214968050660  0.7232756869943745   T   T   T
  0.4881119967239662  0.3642611514295442  0.8808927421382943   T   T   T
  0.4834407750121495  0.3059821175911653  0.7285428175032642   T   T   T
  0.1190963337879522  0.4949431640396548  0.8692860460045710   T   T   T
  0.1784470283279807  0.4806350897453444  0.7350007053710823   T   T   T
  0.3638301648691843  0.8750427080798822  0.8721135879507949   T   T   T
  0.3066902736418008  0.8207069683230960  0.7190058630615069   T   T   T
  0.5110835468690199  0.6385486679412914  0.8726117367409704   T   T   T
  0.5146477722003351  0.6956344815441243  0.7194042219121931   T   T   T
  0.5265867946373449  0.2636582951121779  0.1031234076602743   T   T   T
  0.5690531017141222  0.2917432726570386  0.5915512926095216   T   T   T
  0.7353680559070526  0.2626668528888622  0.1008693652629254   T   T   T
  0.7072004094760814  0.2813058971277382  0.5901113766809366   T   T   T
  0.7363185680758422  0.4723211849964790  0.0999624664431138   T   T   T
  0.7191391202203353  0.4298705048397730  0.5895330424064396   T   T   T
  0.4734718929087540  0.7371345321643640  0.0983965167095667   T   T   T
  0.4275391854529809  0.7183555492062176  0.5858215327089282   T   T   T
  0.2648428551336793  0.7407559525293649  0.1014023936124928   T   T   T
  0.2793502718067392  0.7073633456822409  0.5888673763269553   T   T   T
  0.2652499665756448  0.5304374047401442  0.0813808336060580   T   T   T
  0.2674872109588566  0.5537614569038178  0.5726396338698864   T   T   T
  0.2925233830725764  0.5683512462337916  0.3985903213782568   T   T   T
  0.2646523626538492  0.7410594162061498  0.8997998760479649   T   T   T
  0.2816326449458759  0.7095052731163162  0.4102353624191004   T   T   T
  0.4719969636359922  0.7362962576835667  0.8986024896580088   T   T   T
  0.4266848863804680  0.7157262470380660  0.4075448420311658   T   T   T
  0.7363511198138606  0.4725024486226314  0.9005482050727068   T   T   T
  0.7218637117969101  0.4314401519292519  0.4114766313619927   T   T   T
  0.7346099622244469  0.2630068173382650  0.9013728816107561   T   T   T
  0.7098567746340471  0.2818601692127200  0.4118826710985337   T   T   T
  0.5260783293504018  0.2646412392457757  0.9033180242648214   T   T   T
  0.5728462684439807  0.2902539356337749  0.4135653328754898   T   T   T
  0.4082716099494840  0.1554119527074867  0.0020269690755626   T   T   T
  0.8434397740713607  0.2527021437835756 -0.0009256107506887   T   T   T
  0.7447681391552712  0.5904450736547587  0.0004557548894525   T   T   T
  0.5902954365195801  0.8467468368353738 -0.0031876608753650   T   T   T
  0.1567987721006499  0.7514913485158873  0.0022909069101416   T   T   T
  0.2554410854016989  0.4166933388564140 -0.0167388088145745   T   T   T
  0.1534061564567998  0.4124820956759943 -0.0223366689308277   T   T   T
  0.2581290572455249  0.8508434215567940  0.0011082233590904   T   T   T
  0.5909623034898861  0.7467673201569945 -0.0018487171930166   T   T   T
  0.8450805582437148  0.5904455941767842  0.0000905627120105   T   T   T
  0.7425843446101157  0.1529118395826120  0.0004671468521632   T   T   T
  0.4086012556914476  0.2559030638421769  0.0043388752031100   T   T   T
  0.7950947278561578  0.3969948601968294  0.0019380247531512   T   T   T
  0.6025579665548267  0.3972094537077811  0.0024013080258623   T   T   T
  0.6014810230522600  0.2056976006005287  0.0008375275125382   T   T   T
  0.2113614540255547  0.6113178621973435  0.0000526930681573   T   T   T
  0.3965972566299003  0.6050876434458534 -0.0017832466574109   T   T   T
  0.3966499695759216  0.7948994385430672  0.0002000332718146   T   T   T
  0.6253149188892695  0.2512826500503801  0.2320257899909891   T   T   T
  0.7483369485393652  0.3733917679101545  0.2328798037806870   T   T   T
  0.6265574999408490  0.3745124144380670  0.2338160668011545   T   T   T
  0.3730506715883281  0.7473258246516330  0.2298364847422808   T   T   T
  0.2498503030621383  0.6253603928331755  0.2281783082760566   T   T   T
  0.3732913051309016  0.6250523111169555  0.2229950911376061   T   T   T
  0.2482990475443193  0.6261234304368455  0.7745289077371718   T   T   T
  0.3732500001686030  0.7482648656464901  0.7670548995033409   T   T   T
  0.3742391328692711  0.6251506234665878  0.7628953113261797   T   T   T
  0.7472218347399403  0.3732710530516173  0.7686751557612226   T   T   T
  0.6233138779822864  0.2518180960135843  0.7702451345070127   T   T   T
  0.6258925971990368  0.3753861646317005  0.7705670473443658   T   T   T
  0.5646963140731746  0.2823108178885674  0.2506996208492420   T   T   T
  0.7174428048133681  0.2813249170968248  0.2492869637687020   T   T   T
  0.7187902973869188  0.4360303408100982  0.2487861219167365   T   T   T
  0.4350471535295227  0.7172991718516326  0.2452595494707223   T   T   T
  0.2816625491008771  0.7190726438627040  0.2471213548985557   T   T   T
  0.2807992522412740  0.5649242758078289  0.2370105658554245   T   T   T
  0.2797955231341580  0.5666291285718063  0.7324118974935270   T   T   T
  0.2808808327665874  0.7176964966951207  0.7533944076644229   T   T   T
  0.4338205332193988  0.7164629344722507  0.7498267881138596   T   T   T
  0.7180583228120216  0.4360221139973566  0.7518197074529397   T   T   T
  0.7152931836253472  0.2809681989792649  0.7532420840200479   T   T   T
  0.5628109156069395  0.2835968306026569  0.7548683953136239   T   T   T
  0.5151527190463375  0.1920786558884316  0.0017709457954717   T   T   T
  0.8073966077970282  0.3234611802333229  0.0012369488707000   T   T   T
  0.6755125442278747  0.4835953470768991  0.0001444056526697   T   T   T
  0.4826096556219727  0.8089215395985015 -0.0021911900144808   T   T   T
  0.1927618475959597  0.6789649416076921 -0.0000388651972581   T   T   T
  0.3315574962041682  0.5170711422825879  0.0115924475668101   T   T   T
  0.1808843502937064  0.5174455566992704 -0.0014897276620554   T   T   T
  0.3254058992788433  0.8115169069002954 -0.0002774239407139   T   T   T
  0.4848205041801518  0.6772709968385460 -0.0023269451084076   T   T   T
  0.8087354998052783  0.4835083743044889  0.0001183810606321   T   T   T
  0.6733878135403678  0.1907954438642560  0.0009202405705934   T   T   T
  0.5158985827550200  0.3255177743385471  0.0048166671106541   T   T   T
 
  0.00000000E+00  0.00000000E+00  0.00000000E+00
  0.00000000E+00  0.00000000E+00  0.00000000E+00
  0.00000000E+00  0.00000000E+00  0.00000000E+00
  0.00000000E+00  0.00000000E+00  0.00000000E+00
  0.00000000E+00  0.00000000E+00  0.00000000E+00
  0.00000000E+00  0.00000000E+00  0.00000000E+00
  0.00000000E+00  0.00000000E+00  0.00000000E+00
  0.00000000E+00  0.00000000E+00  0.00000000E+00
  0.00000000E+00  0.00000000E+00  0.00000000E+00
  0.00000000E+00  0.00000000E+00  0.00000000E+00
  0.00000000E+00  0.00000000E+00  0.00000000E+00
  0.00000000E+00  0.00000000E+00  0.00000000E+00
  0.00000000E+00  0.00000000E+00  0.00000000E+00
  0.00000000E+00  0.00000000E+00  0.00000000E+00
  0.00000000E+00  0.00000000E+00  0.00000000E+00
  0.00000000E+00  0.00000000E+00  0.00000000E+00
  0.00000000E+00  0.00000000E+00  0.00000000E+00
  0.00000000E+00  0.00000000E+00  0.00000000E+00
  0.00000000E+00  0.00000000E+00  0.00000000E+00
  0.00000000E+00  0.00000000E+00  0.00000000E+00
  0.00000000E+00  0.00000000E+00  0.00000000E+00
  0.00000000E+00  0.00000000E+00  0.00000000E+00
  0.00000000E+00  0.00000000E+00  0.00000000E+00
  0.00000000E+00  0.00000000E+00  0.00000000E+00
  0.00000000E+00  0.00000000E+00  0.00000000E+00
  0.00000000E+00  0.00000000E+00  0.00000000E+00
  0.00000000E+00  0.00000000E+00  0.00000000E+00
  0.00000000E+00  0.00000000E+00  0.00000000E+00
  0.00000000E+00  0.00000000E+00  0.00000000E+00
  0.00000000E+00  0.00000000E+00  0.00000000E+00
  0.00000000E+00  0.00000000E+00  0.00000000E+00
  0.00000000E+00  0.00000000E+00  0.00000000E+00
  0.00000000E+00  0.00000000E+00  0.00000000E+00
  0.00000000E+00  0.00000000E+00  0.00000000E+00
  0.00000000E+00  0.00000000E+00  0.00000000E+00
  0.00000000E+00  0.00000000E+00  0.00000000E+00
  0.00000000E+00  0.00000000E+00  0.00000000E+00
  0.00000000E+00  0.00000000E+00  0.00000000E+00
  0.00000000E+00  0.00000000E+00  0.00000000E+00
  0.00000000E+00  0.00000000E+00  0.00000000E+00
  0.00000000E+00  0.00000000E+00  0.00000000E+00
  0.00000000E+00  0.00000000E+00  0.00000000E+00
  0.00000000E+00  0.00000000E+00  0.00000000E+00
  0.00000000E+00  0.00000000E+00  0.00000000E+00
  0.00000000E+00  0.00000000E+00  0.00000000E+00
  0.00000000E+00  0.00000000E+00  0.00000000E+00
  0.00000000E+00  0.00000000E+00  0.00000000E+00
  0.00000000E+00  0.00000000E+00  0.00000000E+00
  0.00000000E+00  0.00000000E+00  0.00000000E+00
  0.00000000E+00  0.00000000E+00  0.00000000E+00
  0.00000000E+00  0.00000000E+00  0.00000000E+00
  0.00000000E+00  0.00000000E+00  0.00000000E+00
  0.00000000E+00  0.00000000E+00  0.00000000E+00
  0.00000000E+00  0.00000000E+00  0.00000000E+00
  0.00000000E+00  0.00000000E+00  0.00000000E+00
  0.00000000E+00  0.00000000E+00  0.00000000E+00
  0.00000000E+00  0.00000000E+00  0.00000000E+00
  0.00000000E+00  0.00000000E+00  0.00000000E+00
  0.00000000E+00  0.00000000E+00  0.00000000E+00
  0.00000000E+00  0.00000000E+00  0.00000000E+00
  0.00000000E+00  0.00000000E+00  0.00000000E+00
  0.00000000E+00  0.00000000E+00  0.00000000E+00
  0.00000000E+00  0.00000000E+00  0.00000000E+00
  0.00000000E+00  0.00000000E+00  0.00000000E+00
  0.00000000E+00  0.00000000E+00  0.00000000E+00
  0.00000000E+00  0.00000000E+00  0.00000000E+00
  0.00000000E+00  0.00000000E+00  0.00000000E+00
  0.00000000E+00  0.00000000E+00  0.00000000E+00
  0.00000000E+00  0.00000000E+00  0.00000000E+00
  0.00000000E+00  0.00000000E+00  0.00000000E+00
  0.00000000E+00  0.00000000E+00  0.00000000E+00
  0.00000000E+00  0.00000000E+00  0.00000000E+00
  0.00000000E+00  0.00000000E+00  0.00000000E+00
  0.00000000E+00  0.00000000E+00  0.00000000E+00
  0.00000000E+00  0.00000000E+00  0.00000000E+00
  0.00000000E+00  0.00000000E+00  0.00000000E+00
  0.00000000E+00  0.00000000E+00  0.00000000E+00
  0.00000000E+00  0.00000000E+00  0.00000000E+00
  0.00000000E+00  0.00000000E+00  0.00000000E+00
  0.00000000E+00  0.00000000E+00  0.00000000E+00
  0.00000000E+00  0.00000000E+00  0.00000000E+00
  0.00000000E+00  0.00000000E+00  0.00000000E+00
  0.00000000E+00  0.00000000E+00  0.00000000E+00
  0.00000000E+00  0.00000000E+00  0.00000000E+00
  0.00000000E+00  0.00000000E+00  0.00000000E+00
  0.00000000E+00  0.00000000E+00  0.00000000E+00
  0.00000000E+00  0.00000000E+00  0.00000000E+00
  0.00000000E+00  0.00000000E+00  0.00000000E+00
  0.00000000E+00  0.00000000E+00  0.00000000E+00
  0.00000000E+00  0.00000000E+00  0.00000000E+00
  0.00000000E+00  0.00000000E+00  0.00000000E+00
  0.00000000E+00  0.00000000E+00  0.00000000E+00
  0.00000000E+00  0.00000000E+00  0.00000000E+00
  0.00000000E+00  0.00000000E+00  0.00000000E+00
  0.00000000E+00  0.00000000E+00  0.00000000E+00
  0.00000000E+00  0.00000000E+00  0.00000000E+00
  0.00000000E+00  0.00000000E+00  0.00000000E+00
  0.00000000E+00  0.00000000E+00  0.00000000E+00
  0.00000000E+00  0.00000000E+00  0.00000000E+00
  0.00000000E+00  0.00000000E+00  0.00000000E+00
  0.00000000E+00  0.00000000E+00  0.00000000E+00
  0.00000000E+00  0.00000000E+00  0.00000000E+00
  0.00000000E+00  0.00000000E+00  0.00000000E+00
  0.00000000E+00  0.00000000E+00  0.00000000E+00
  0.00000000E+00  0.00000000E+00  0.00000000E+00
  0.00000000E+00  0.00000000E+00  0.00000000E+00
  0.00000000E+00  0.00000000E+00  0.00000000E+00
  0.00000000E+00  0.00000000E+00  0.00000000E+00
  0.00000000E+00  0.00000000E+00  0.00000000E+00
  0.00000000E+00  0.00000000E+00  0.00000000E+00
  0.00000000E+00  0.00000000E+00  0.00000000E+00
  0.00000000E+00  0.00000000E+00  0.00000000E+00
  0.00000000E+00  0.00000000E+00  0.00000000E+00
  0.00000000E+00  0.00000000E+00  0.00000000E+00
  0.00000000E+00  0.00000000E+00  0.00000000E+00
  0.00000000E+00  0.00000000E+00  0.00000000E+00
  0.00000000E+00  0.00000000E+00  0.00000000E+00
  0.00000000E+00  0.00000000E+00  0.00000000E+00
  0.00000000E+00  0.00000000E+00  0.00000000E+00
  0.00000000E+00  0.00000000E+00  0.00000000E+00
  0.00000000E+00  0.00000000E+00  0.00000000E+00
  0.00000000E+00  0.00000000E+00  0.00000000E+00
  0.00000000E+00  0.00000000E+00  0.00000000E+00
  0.00000000E+00  0.00000000E+00  0.00000000E+00
  0.00000000E+00  0.00000000E+00  0.00000000E+00
  0.00000000E+00  0.00000000E+00  0.00000000E+00
  0.00000000E+00  0.00000000E+00  0.00000000E+00
  0.00000000E+00  0.00000000E+00  0.00000000E+00
  0.00000000E+00  0.00000000E+00  0.00000000E+00
  0.00000000E+00  0.00000000E+00  0.00000000E+00
  0.00000000E+00  0.00000000E+00  0.00000000E+00
  0.00000000E+00  0.00000000E+00  0.00000000E+00
  0.00000000E+00  0.00000000E+00  0.00000000E+00
  0.00000000E+00  0.00000000E+00  0.00000000E+00
  0.00000000E+00  0.00000000E+00  0.00000000E+00
  0.00000000E+00  0.00000000E+00  0.00000000E+00
  0.00000000E+00  0.00000000E+00  0.00000000E+00
  0.00000000E+00  0.00000000E+00  0.00000000E+00
  0.00000000E+00  0.00000000E+00  0.00000000E+00
  0.00000000E+00  0.00000000E+00  0.00000000E+00
  0.00000000E+00  0.00000000E+00  0.00000000E+00
  0.00000000E+00  0.00000000E+00  0.00000000E+00
  0.00000000E+00  0.00000000E+00  0.00000000E+00
  0.00000000E+00  0.00000000E+00  0.00000000E+00
  0.00000000E+00  0.00000000E+00  0.00000000E+00
  0.00000000E+00  0.00000000E+00  0.00000000E+00
  0.00000000E+00  0.00000000E+00  0.00000000E+00
  0.00000000E+00  0.00000000E+00  0.00000000E+00
  0.00000000E+00  0.00000000E+00  0.00000000E+00
  0.00000000E+00  0.00000000E+00  0.00000000E+00
  0.00000000E+00  0.00000000E+00  0.00000000E+00
  0.00000000E+00  0.00000000E+00  0.00000000E+00
  0.00000000E+00  0.00000000E+00  0.00000000E+00
  0.00000000E+00  0.00000000E+00  0.00000000E+00
  0.00000000E+00  0.00000000E+00  0.00000000E+00
  0.00000000E+00  0.00000000E+00  0.00000000E+00
  0.00000000E+00  0.00000000E+00  0.00000000E+00
  0.00000000E+00  0.00000000E+00  0.00000000E+00
  0.00000000E+00  0.00000000E+00  0.00000000E+00