ACM-1-Ovequa                            
   1.00000000000000     
    30.7123579999999983    0.0402650000000000   -0.0055660000000000
     0.0000000000000000    7.0591249999999999   -0.0064340000000000
     0.0000000000000000    0.0000000000000000   15.9014330000000008
   H    C    O    Ti
    44    88    19     4
Selective dynamics
Direct
  0.0389757104128492  0.4838637426141332  0.2886457235098234   T   T   T
  0.9587549530217387  0.4959658788378718  0.7170429512907006   T   T   T
  0.9589776347487913  0.4917570519445960  0.2884717566150456   T   T   T
  0.0387404490131615  0.4923759269753418  0.7172223624513023   T   T   T
  0.5374524336109729  0.9861595715127081  0.2888094692943000   T   T   T
  0.4590941311613150  0.9677386624678519  0.7180418715648926   T   T   T
  0.4576621613079510  0.9676304971932694  0.2896357911507792   T   T   T
  0.5388889397204295  0.9867775502275506  0.7170186614742420   T   T   T
  0.1491526568314470  0.4915133515689121  0.5032342834850141   T   T   T
  0.8485225231435933  0.5019224967815461  0.5022267302348524   T   T   T
  0.6483868898630334  0.0016637110881419  0.5011950111020056   T   T   T
  0.3479398110102423  0.9474496431312858  0.5050901458815957   T   T   T
  0.1410406333314285  0.2221050863968372  0.1712567432119343   T   T   T
  0.6404493863632368  0.2781682443615452  0.8308492791311224   T   T   T
  0.3629360376205497  0.2724646962771260  0.8283038972338517   T   T   T
  0.1487647282982678  0.7516403965752403  0.3780115413184220   T   T   T
  0.0936551153965937  0.2185729260766891  0.2986400698438914   T   T   T
  0.3420443056849436  0.7230106436797570  0.6360523633973685   T   T   T
  0.5918310074585023  0.2712487768269014  0.7048260381070435   T   T   T
  0.4104027658667491  0.2360386213899375  0.7018710377662458   T   T   T
  0.6503171380286830  0.7430653440427122  0.6272004024932016   T   T   T
  0.9075499368952435  0.7725908415416782  0.3026808659429463   T   T   T
  0.9051512291999160  0.2276286197023225  0.7080008215963289   T   T   T
  0.1487035940857240  0.7517311866729557  0.6282340034970204   T   T   T
  0.8472684487768376  0.2433153745368060  0.3719969307020463   T   T   T
  0.6484362493804881  0.7414773278902231  0.3716543641063907   T   T   T
  0.5894297769681458  0.2736978108560280  0.3016583710725342   T   T   T
  0.8021579378473405  0.7627570561030339  0.7564018680140947   T   T   T
  0.1931459457295830  0.7627856609505557  0.7599100631426410   T   T   T
  0.8065744068937235  0.2416901732524934  0.2355333498423491   T   T   T
  0.6892840030857172  0.7367601337408303  0.2353649040692858   T   T   T
  0.6339810483205639  0.2773613685268330  0.1698075107297683   T   T   T
  0.2949402889864885  0.7596941700338249  0.2436144629063719   T   T   T
  0.8634085098796689  0.7787305355628931  0.1702531233828211   T   T   T
  0.1415599205836955  0.2216845233894205  0.8343717309701972   T   T   T
  0.1930080850083655  0.7625211432478949  0.2461478179491650   T   T   T
  0.3624862681725247  0.2744662587297597  0.1809159592803482   T   T   T
  0.6957040886536490  0.7417044273416167  0.7578178088759628   T   T   T
  0.2959508214779163  0.7566626159104501  0.7649238699486034   T   T   T
  0.8473008173226262  0.7531858648169205  0.6255754434516660   T   T   T
  0.0936938573566053  0.2187260587152124  0.7076040892449100   T   T   T
  0.3407678334583863  0.7255853970920825  0.3727819829394647   T   T   T
  0.4096799672845606  0.2371505113963153  0.3076824699453269   T   T   T
  0.8569590525674613  0.2295141894872827  0.8346609965454448   T   T   T
  0.1979518425088145  0.5023711315014339  0.1246005215334662   T   T   T
  0.7982642478808231  0.5001830318285982  0.8786510050125429   T   T   T
  0.8078663719918282  0.5067474037806790  0.1144573937928257   T   T   T
  0.1983755955072795  0.5020308026620697  0.8813387200760090   T   T   T
  0.6890023326355674  0.0052911840028358  0.1144021749771653   T   T   T
  0.2982322200334337  0.0506883294421741  0.8782793385469176   T   T   T
  0.2977970766257698  0.0523456875629478  0.1299446452450752   T   T   T
  0.6992664150307419  0.0113369080831305  0.8777099145040452   T   T   T
  0.0211894582679406  0.4827924598873992  0.3482923088215486   T   T   T
  0.9765010918197490  0.4869846797619246  0.6574460197505019   T   T   T
  0.9767253110141709  0.4883906572513865  0.3481836485377343   T   T   T
  0.0209955950627290  0.4847350769272794  0.6575661577305567   T   T   T
  0.5197803436962687  0.9910827179856270  0.3485669849456414   T   T   T
  0.4764220658454192  0.9811462604692096  0.6581746785020570   T   T   T
  0.4753652218443349  0.9809891887567517  0.3490778971436868   T   T   T
  0.5208633471640951  0.9915581868647436  0.6576283848883691   T   T   T
  0.0221761098190072  0.4781328120221033  0.5029879002574305   T   T   T
  0.9755285823911066  0.4831630603013579  0.5028851332202180   T   T   T
  0.5212421519946417  0.9991686615933020  0.5031092467859111   T   T   T
  0.4746447188668412  0.9878473315112544  0.5036478231868742   T   T   T
  0.0916770045643887  0.4828349679875927  0.4258234832983305   T   T   T
  0.9059217580842898  0.4881476005813923  0.5797254241629872   T   T   T
  0.9061674558501380  0.5001052374825932  0.4253461078820990   T   T   T
  0.0916406618211454  0.4825750504715955  0.5804056585323494   T   T   T
  0.5904783514531076  0.0041049204714412  0.4249544503486788   T   T   T
  0.4055247873345564  0.9660514689851354  0.5816814361406912   T   T   T
  0.4050010663001231  0.9668004611897132  0.4271018379281699   T   T   T
  0.5910818328041856  0.0036957942863651  0.5793053463217959   T   T   T
  0.0454802533251879  0.4785670220276472  0.4249162360058065   T   T   T
  0.9521449040646388  0.4828616726339519  0.5808595409179205   T   T   T
  0.9523622139189243  0.4916491383300539  0.4247536176135682   T   T   T
  0.0454340851516335  0.4778135966532275  0.5811073660961412   T   T   T
  0.5442517693989259  0.0022907553944478  0.4248095916890762   T   T   T
  0.4516870486524809  0.9810994007100362  0.5819955155955512   T   T   T
  0.4511699636011244  0.9814577902223931  0.4258340379916774   T   T   T
  0.5448600725221411  0.0023128327695261  0.5808046804496740   T   T   T
  0.1134443195047083  0.4887380408678439  0.5031331349496355   T   T   T
  0.8842259404455106  0.4970050694751933  0.5023730565550082   T   T   T
  0.6126579372660288  0.0001068299854197  0.5017724852288268   T   T   T
  0.3836182423032923  0.9538641860353394  0.5046105532132898   T   T   T
  0.1695557497440277  0.4938136088112941  0.2005751314883994   T   T   T
  0.8268329457460268  0.4966385817613954  0.8031330909840904   T   T   T
  0.8328263200441341  0.5095455035442598  0.1948960643846362   T   T   T
  0.1699196632415720  0.4936163059040481  0.8053330753728858   T   T   T
  0.6638560923595449  0.0064552314949893  0.1946454491649021   T   T   T
  0.3266832941562754  0.0170500871835628  0.8042434048435254   T   T   T
  0.3259438892942086  0.0194756882134541  0.2045469969331108   T   T   T
  0.6707688456708993  0.0097943728633609  0.8020221184538912   T   T   T
  0.1714301421408067  0.6426346141332360  0.2589014386803399   T   T   T
  0.1419480451196691  0.3398680729011190  0.2160977739069452   T   T   T
  0.3210864690175939  0.8616185660485272  0.7504291507399046   T   T   T
  0.6417888443905468  0.1594800951118316  0.7865294884335512   T   T   T
  0.3591698767666927  0.1507952596996276  0.7862446736246795   T   T   T
  0.6732435936287828  0.8587120392651926  0.7449189015869777   T   T   T
  0.1466090102921598  0.6361364743159328  0.3321357328998644   T   T   T
  0.1156644590629341  0.3380726908615657  0.2876373811838704   T   T   T
  0.3469048402049211  0.8434247514554016  0.6785905151255704   T   T   T
  0.6148553800999323  0.1552712185215412  0.7159608806294244   T   T   T
  0.3855070743037459  0.1295775201380351  0.7158642139402502   T   T   T
  0.6477373047042789  0.8597128785582626  0.6724449005698006   T   T   T
  0.1178207368059319  0.4852971421977230  0.3472714484900123   T   T   T
  0.8795391570421955  0.4903943605992822  0.6578736964521568   T   T   T
  0.8806387336781611  0.5066453633425994  0.3461307190936722   T   T   T
  0.1178117055908885  0.4853393497786911  0.6589442992322887   T   T   T
  0.6158339309827738  0.0068859313797063  0.3455382721394358   T   T   T
  0.3795702513039672  0.9766640358536449  0.6600939388998128   T   T   T
  0.3786326711642261  0.9784719256800329  0.3491374365540025   T   T   T
  0.6176984639418137  0.0063850510877117  0.6572408832884307   T   T   T
  0.8497644144674865  0.6388649380584965  0.6719079884039516   T   T   T
  0.8850352274261581  0.6565475382649524  0.2884786100376999   T   T   T
  0.1157567254190326  0.3381059728305900  0.7184951022050257   T   T   T
  0.8823503496777292  0.3449210796298914  0.7181821415238403   T   T   T
  0.1466464021483489  0.6361506873332345  0.6740433108335608   T   T   T
  0.8511827771006466  0.3602799585215166  0.3273711502475791   T   T   T
  0.6448826241305667  0.8584913291415646  0.3269273411690179   T   T   T
  0.3846611217796010  0.1313758135523244  0.2935103536214427   T   T   T
  0.6117367958006739  0.1565429814222341  0.2876773103764663   T   T   T
  0.3457955477228509  0.8459747412173400  0.3304311027252353   T   T   T
  0.8244339724959460  0.6444992559469895  0.7444841341862940   T   T   T
  0.8607415337023099  0.6602637740408426  0.2143995696180667   T   T   T
  0.1422891558549111  0.3396982493697394  0.7897362001069652   T   T   T
  0.8556335923471678  0.3455395631812124  0.7890534522062538   T   T   T
  0.1715940859731830  0.6426528579641584  0.7471888338947252   T   T   T
  0.8282857338306897  0.3591329629580216  0.2517381579485800   T   T   T
  0.6678835433650434  0.8556317033574317  0.2513844931448830   T   T   T
  0.3584643101087366  0.1529864850238880  0.2229197461912804   T   T   T
  0.6362081733311697  0.1586697405024253  0.2139037120765508   T   T   T
  0.3200879370596894  0.8645245616029342  0.2584194787709251   T   T   T
  0.2870859155354211  0.5665954723870215  0.0036631669574447   T   T   T
  0.7285731781204774  0.5090757410439508  0.0274015235946692   T   T   T
  0.7682040292938694  0.0070850627210035  0.0276567415294764   T   T   T
  0.2126843489955093  0.3474606596379104  0.0939555497586113   T   T   T
  0.7849716357378895  0.6622574756653563  0.9037522100814996   T   T   T
  0.8004708306068054  0.6658552616422213  0.0786439233740737   T   T   T
  0.2134871454452281  0.3472038257653338  0.9112568743016851   T   T   T
  0.7885417463494591  0.3411862111335182  0.9120180005897325   T   T   T
  0.2071284733276357  0.6665447305457377  0.0963377504921183   T   T   T
  0.2071065721391818  0.6659713069993742  0.9104994750803570   T   T   T
  0.7962672137116726  0.3435882925108515  0.0878651153679897   T   T   T
  0.6997881535735431  0.8437266512656194  0.0848303381524929   T   T   T
  0.3005769813444275  0.2124868696145441  0.9128225129562892   T   T   T
  0.2997660040534882  0.2149549722519453  0.0961856074414413   T   T   T
  0.7116126390590622  0.8507214851538336  0.9060890979295309   T   T   T
  0.2717971393006025  0.9228975689693542  0.9035470692816929   T   T   T
  0.6971947502767790  0.1669304977957680  0.0815651242548370   T   T   T
  0.7097279025662573  0.1725747820110257  0.9080704336897369   T   T   T
  0.2720766979760754  0.9229672205219046  0.1034334179134433   T   T   T
  0.2623775234105494  0.3308077109706247  0.0035299077302327   T   T   T
  0.7491399127981140  0.7571904939306933  0.0037018815188148   T   T   T
  0.7478686323833728  0.2574634609241855  0.0066077193208471   T   T   T
  0.2488617915571041  0.7668298536879092  0.0035288952050436   T   T   T
 
  0.00000000E+00  0.00000000E+00  0.00000000E+00
  0.00000000E+00  0.00000000E+00  0.00000000E+00
  0.00000000E+00  0.00000000E+00  0.00000000E+00
  0.00000000E+00  0.00000000E+00  0.00000000E+00
  0.00000000E+00  0.00000000E+00  0.00000000E+00
  0.00000000E+00  0.00000000E+00  0.00000000E+00
  0.00000000E+00  0.00000000E+00  0.00000000E+00
  0.00000000E+00  0.00000000E+00  0.00000000E+00
  0.00000000E+00  0.00000000E+00  0.00000000E+00
  0.00000000E+00  0.00000000E+00  0.00000000E+00
  0.00000000E+00  0.00000000E+00  0.00000000E+00
  0.00000000E+00  0.00000000E+00  0.00000000E+00
  0.00000000E+00  0.00000000E+00  0.00000000E+00
  0.00000000E+00  0.00000000E+00  0.00000000E+00
  0.00000000E+00  0.00000000E+00  0.00000000E+00
  0.00000000E+00  0.00000000E+00  0.00000000E+00
  0.00000000E+00  0.00000000E+00  0.00000000E+00
  0.00000000E+00  0.00000000E+00  0.00000000E+00
  0.00000000E+00  0.00000000E+00  0.00000000E+00
  0.00000000E+00  0.00000000E+00  0.00000000E+00
  0.00000000E+00  0.00000000E+00  0.00000000E+00
  0.00000000E+00  0.00000000E+00  0.00000000E+00
  0.00000000E+00  0.00000000E+00  0.00000000E+00
  0.00000000E+00  0.00000000E+00  0.00000000E+00
  0.00000000E+00  0.00000000E+00  0.00000000E+00
  0.00000000E+00  0.00000000E+00  0.00000000E+00
  0.00000000E+00  0.00000000E+00  0.00000000E+00
  0.00000000E+00  0.00000000E+00  0.00000000E+00
  0.00000000E+00  0.00000000E+00  0.00000000E+00
  0.00000000E+00  0.00000000E+00  0.00000000E+00
  0.00000000E+00  0.00000000E+00  0.00000000E+00
  0.00000000E+00  0.00000000E+00  0.00000000E+00
  0.00000000E+00  0.00000000E+00  0.00000000E+00
  0.00000000E+00  0.00000000E+00  0.00000000E+00
  0.00000000E+00  0.00000000E+00  0.00000000E+00
  0.00000000E+00  0.00000000E+00  0.00000000E+00
  0.00000000E+00  0.00000000E+00  0.00000000E+00
  0.00000000E+00  0.00000000E+00  0.00000000E+00
  0.00000000E+00  0.00000000E+00  0.00000000E+00
  0.00000000E+00  0.00000000E+00  0.00000000E+00
  0.00000000E+00  0.00000000E+00  0.00000000E+00
  0.00000000E+00  0.00000000E+00  0.00000000E+00
  0.00000000E+00  0.00000000E+00  0.00000000E+00
  0.00000000E+00  0.00000000E+00  0.00000000E+00
  0.00000000E+00  0.00000000E+00  0.00000000E+00
  0.00000000E+00  0.00000000E+00  0.00000000E+00
  0.00000000E+00  0.00000000E+00  0.00000000E+00
  0.00000000E+00  0.00000000E+00  0.00000000E+00
  0.00000000E+00  0.00000000E+00  0.00000000E+00
  0.00000000E+00  0.00000000E+00  0.00000000E+00
  0.00000000E+00  0.00000000E+00  0.00000000E+00
  0.00000000E+00  0.00000000E+00  0.00000000E+00
  0.00000000E+00  0.00000000E+00  0.00000000E+00
  0.00000000E+00  0.00000000E+00  0.00000000E+00
  0.00000000E+00  0.00000000E+00  0.00000000E+00
  0.00000000E+00  0.00000000E+00  0.00000000E+00
  0.00000000E+00  0.00000000E+00  0.00000000E+00
  0.00000000E+00  0.00000000E+00  0.00000000E+00
  0.00000000E+00  0.00000000E+00  0.00000000E+00
  0.00000000E+00  0.00000000E+00  0.00000000E+00
  0.00000000E+00  0.00000000E+00  0.00000000E+00
  0.00000000E+00  0.00000000E+00  0.00000000E+00
  0.00000000E+00  0.00000000E+00  0.00000000E+00
  0.00000000E+00  0.00000000E+00  0.00000000E+00
  0.00000000E+00  0.00000000E+00  0.00000000E+00
  0.00000000E+00  0.00000000E+00  0.00000000E+00
  0.00000000E+00  0.00000000E+00  0.00000000E+00
  0.00000000E+00  0.00000000E+00  0.00000000E+00
  0.00000000E+00  0.00000000E+00  0.00000000E+00
  0.00000000E+00  0.00000000E+00  0.00000000E+00
  0.00000000E+00  0.00000000E+00  0.00000000E+00
  0.00000000E+00  0.00000000E+00  0.00000000E+00
  0.00000000E+00  0.00000000E+00  0.00000000E+00
  0.00000000E+00  0.00000000E+00  0.00000000E+00
  0.00000000E+00  0.00000000E+00  0.00000000E+00
  0.00000000E+00  0.00000000E+00  0.00000000E+00
  0.00000000E+00  0.00000000E+00  0.00000000E+00
  0.00000000E+00  0.00000000E+00  0.00000000E+00
  0.00000000E+00  0.00000000E+00  0.00000000E+00
  0.00000000E+00  0.00000000E+00  0.00000000E+00
  0.00000000E+00  0.00000000E+00  0.00000000E+00
  0.00000000E+00  0.00000000E+00  0.00000000E+00
  0.00000000E+00  0.00000000E+00  0.00000000E+00
  0.00000000E+00  0.00000000E+00  0.00000000E+00
  0.00000000E+00  0.00000000E+00  0.00000000E+00
  0.00000000E+00  0.00000000E+00  0.00000000E+00
  0.00000000E+00  0.00000000E+00  0.00000000E+00
  0.00000000E+00  0.00000000E+00  0.00000000E+00
  0.00000000E+00  0.00000000E+00  0.00000000E+00
  0.00000000E+00  0.00000000E+00  0.00000000E+00
  0.00000000E+00  0.00000000E+00  0.00000000E+00
  0.00000000E+00  0.00000000E+00  0.00000000E+00
  0.00000000E+00  0.00000000E+00  0.00000000E+00
  0.00000000E+00  0.00000000E+00  0.00000000E+00
  0.00000000E+00  0.00000000E+00  0.00000000E+00
  0.00000000E+00  0.00000000E+00  0.00000000E+00
  0.00000000E+00  0.00000000E+00  0.00000000E+00
  0.00000000E+00  0.00000000E+00  0.00000000E+00
  0.00000000E+00  0.00000000E+00  0.00000000E+00
  0.00000000E+00  0.00000000E+00  0.00000000E+00
  0.00000000E+00  0.00000000E+00  0.00000000E+00
  0.00000000E+00  0.00000000E+00  0.00000000E+00
  0.00000000E+00  0.00000000E+00  0.00000000E+00
  0.00000000E+00  0.00000000E+00  0.00000000E+00
  0.00000000E+00  0.00000000E+00  0.00000000E+00
  0.00000000E+00  0.00000000E+00  0.00000000E+00
  0.00000000E+00  0.00000000E+00  0.00000000E+00
  0.00000000E+00  0.00000000E+00  0.00000000E+00
  0.00000000E+00  0.00000000E+00  0.00000000E+00
  0.00000000E+00  0.00000000E+00  0.00000000E+00
  0.00000000E+00  0.00000000E+00  0.00000000E+00
  0.00000000E+00  0.00000000E+00  0.00000000E+00
  0.00000000E+00  0.00000000E+00  0.00000000E+00
  0.00000000E+00  0.00000000E+00  0.00000000E+00
  0.00000000E+00  0.00000000E+00  0.00000000E+00
  0.00000000E+00  0.00000000E+00  0.00000000E+00
  0.00000000E+00  0.00000000E+00  0.00000000E+00
  0.00000000E+00  0.00000000E+00  0.00000000E+00
  0.00000000E+00  0.00000000E+00  0.00000000E+00
  0.00000000E+00  0.00000000E+00  0.00000000E+00
  0.00000000E+00  0.00000000E+00  0.00000000E+00
  0.00000000E+00  0.00000000E+00  0.00000000E+00
  0.00000000E+00  0.00000000E+00  0.00000000E+00
  0.00000000E+00  0.00000000E+00  0.00000000E+00
  0.00000000E+00  0.00000000E+00  0.00000000E+00
  0.00000000E+00  0.00000000E+00  0.00000000E+00
  0.00000000E+00  0.00000000E+00  0.00000000E+00
  0.00000000E+00  0.00000000E+00  0.00000000E+00
  0.00000000E+00  0.00000000E+00  0.00000000E+00
  0.00000000E+00  0.00000000E+00  0.00000000E+00
  0.00000000E+00  0.00000000E+00  0.00000000E+00
  0.00000000E+00  0.00000000E+00  0.00000000E+00
  0.00000000E+00  0.00000000E+00  0.00000000E+00
  0.00000000E+00  0.00000000E+00  0.00000000E+00
  0.00000000E+00  0.00000000E+00  0.00000000E+00
  0.00000000E+00  0.00000000E+00  0.00000000E+00
  0.00000000E+00  0.00000000E+00  0.00000000E+00
  0.00000000E+00  0.00000000E+00  0.00000000E+00
  0.00000000E+00  0.00000000E+00  0.00000000E+00
  0.00000000E+00  0.00000000E+00  0.00000000E+00
  0.00000000E+00  0.00000000E+00  0.00000000E+00
  0.00000000E+00  0.00000000E+00  0.00000000E+00
  0.00000000E+00  0.00000000E+00  0.00000000E+00
  0.00000000E+00  0.00000000E+00  0.00000000E+00
  0.00000000E+00  0.00000000E+00  0.00000000E+00
  0.00000000E+00  0.00000000E+00  0.00000000E+00
  0.00000000E+00  0.00000000E+00  0.00000000E+00
  0.00000000E+00  0.00000000E+00  0.00000000E+00
  0.00000000E+00  0.00000000E+00  0.00000000E+00
  0.00000000E+00  0.00000000E+00  0.00000000E+00
  0.00000000E+00  0.00000000E+00  0.00000000E+00
  0.00000000E+00  0.00000000E+00  0.00000000E+00
  0.00000000E+00  0.00000000E+00  0.00000000E+00
  0.00000000E+00  0.00000000E+00  0.00000000E+00
  0.00000000E+00  0.00000000E+00  0.00000000E+00
