MIL-177-LT_Oequa2                       
   1.00000000000000     
    19.5672369999999987  -11.2971489999999992    0.0000000000000000
     0.0000000000000000   22.5942989999999995    0.0000000000000000
     0.0000000000000000    0.0000000000000000   12.3059999999999992
   H    C    O    Ti
    60   114   101    24
Selective dynamics
Direct
  0.3837599012355893  0.1093639364238942  0.6101612559088025   T   T   T
  0.8819809935045673  0.2705800951478937  0.6046689475019948   T   T   T
  0.7213325949261662  0.6158943151422764  0.6114996420713383   T   T   T
  0.6288220364668891  0.8971316078261156  0.6123790605333918   T   T   T
  0.1108487840925464  0.7249881829301684  0.6082334751560444   T   T   T
  0.2831475892445257  0.3987119126014998  0.6102001442681210   T   T   T
  0.1065739696512755  0.3825337489330084  0.3942214570632054   T   T   T
  0.2750503968193284  0.8888350245518157  0.3856895653548971   T   T   T
  0.6053335933738436  0.7208748701387633  0.3912808552668459   T   T   T
  0.8891835976438016  0.6146986170054387  0.3913260962058419   T   T   T
  0.7256218009638155  0.1145049168676830  0.3854994757753895   T   T   T
  0.3853866166942264  0.2793024535391867  0.3929899081807597   T   T   T
  0.6188570985358682  0.8930907608584385  0.3903202580683956   T   T   T
  0.1105927236257645  0.7266194556530964  0.3872015775581424   T   T   T
  0.2765400256922723  0.3918688173341838  0.3911465509763564   T   T   T
  0.3852252945089458  0.1101660379799052  0.3917080948502069   T   T   T
  0.8852150495862066  0.2716882996746208  0.3854330858961627   T   T   T
  0.7197209709081598  0.6139548994210919  0.3926560945897441   T   T   T
  0.8893550107109535  0.6153340908280923  0.6108297622523698   T   T   T
  0.7274834783342341  0.1179080998547920  0.6035705012562264   T   T   T
  0.3831312549158153  0.2776266010096941  0.6124285917817299   T   T   T
  0.1028983641085941  0.3722965819807985  0.6139296058141819   T   T   T
  0.2776099680907072  0.8880398407414923  0.6072406828968366   T   T   T
  0.5980918190239336  0.7135092500416738  0.6094969440054320   T   T   T
  0.4309537261768890  0.0000325697640304  0.8495688983278682   T   T   T
  0.9934990729619011  0.4182609409840875  0.8546213438481559   T   T   T
  0.5645925049777629  0.5622990355233728  0.8522349317028733   T   T   T
  0.5826553498040409  0.0047828448033954  0.8559975815612088   T   T   T
  0.0007113415461994  0.5734908377378780  0.8538247931421908   T   T   T
  0.4323643829151507  0.4318186410635638  0.8562248976245191   T   T   T
  0.9994013051710733  0.4308700953341147  0.1525742134599579   T   T   T
  0.4306853058545813  0.0022490423729585  0.1472875898469888   T   T   T
  0.5653488800919795  0.5676299117932171  0.1496199615970986   T   T   T
 -0.0011476277877576  0.5736773729051815  0.1442557819760424   T   T   T
  0.5700390039694098 -0.0004772493186826  0.1480321800458059   T   T   T
  0.4287901350663685  0.4317808932885147  0.1478111117666619   T   T   T
  0.2332983273047762  0.9518007221455840  0.4993879271091679   T   T   T
  0.0380418502569209  0.2708073950968868  0.4966867934297404   T   T   T
  0.7091231266801046  0.7635577206834727  0.5037630685719917   T   T   T
  0.7724999862258518  0.0540089571028084  0.4903916295670860   T   T   T
  0.9546967259356134  0.7222498319976810  0.5001927456811056   T   T   T
  0.2776501503461581  0.2396830875750365  0.5052962553876797   T   T   T
  0.9468747425084474  0.2268825556367159  0.4923929614710602   T   T   T
  0.2773275474792147  0.0430269525873097  0.5003737523005582   T   T   T
  0.7582601892585983  0.7215629930721472  0.5050947065963381   T   T   T
  0.0458938712468583  0.7675473803875786  0.5000960094719008   T   T   T
  0.7296742597170107  0.9629440845818759  0.4950839051978936   T   T   T
  0.2346034267795096  0.2877836798391473  0.5037070273451374   T   T   T
  0.4694480613529046  0.6732704974102980  0.4863762999392792   T   T   T
  0.2083312607019084  0.5539856237322108  0.5013320383584717   T   T   T
  0.5329483144586977  0.2031689457997889  0.5007816445575969   T   T   T
  0.6449616034493600  0.4351958412095311  0.5018916686536196   T   T   T
  0.7953596569392991  0.3177194940880155  0.5022651811962182   T   T   T
  0.3388721650485402  0.7963423641805960  0.5049222694026686   T   T   T
  0.3221828437448029  0.1634814339594287  0.0009565301714984   T   T   T
  0.1649538086984798  0.3221965582386955  0.0201428431019407   T   T   T
  0.1658210664755643  0.8396706713298918 -0.0018867633267829   T   T   T
  0.8357970041675299  0.1617938736119113 -0.0003997897290625   T   T   T
  0.8360292888371352  0.6771213052135721 -0.0000820060874905   T   T   T
  0.6771085378025982  0.8293584494667842  0.0130794280197044   T   T   T
  0.3740709457784191  0.0602680951015298  0.6433029900024233   T   T   T
  0.4129034755657101  0.0609910884574925  0.7324319044921903   T   T   T
  0.4645605341178669  0.1277915057616656  0.7789743016753817   T   T   T
  0.9314164767879900  0.3060306416558481  0.6416994734779956   T   T   T
  0.9320538940838947  0.3434933703290202  0.7326415825356241   T   T   T
  0.8672425933598853  0.3350222917716325  0.7755886672540757   T   T   T
  0.6806519300752514  0.6234668957482989  0.6450973028413614   T   T   T
  0.6434080549214415  0.5835132948756492  0.7337108698442946   T   T   T
  0.6596692246875712  0.5327890085250033  0.7793509083128130   T   T   T
  0.6386542386986738  0.9460752643846172  0.6462458902610408   T   T   T
  0.6017170634708192  0.9450839231167217  0.7381352235794298   T   T   T
  0.5494230486198924  0.8788044702987790  0.7823771796231374   T   T   T
  0.0615431818253983  0.6874588391914510  0.6433374224604129   T   T   T
  0.0618623055867801  0.6501263499361950  0.7337454387095047   T   T   T
  0.1284132807744134  0.6637624464901009  0.7788971467149829   T   T   T
  0.3189187358804210  0.3845791762011171  0.6455252296017153   T   T   T
  0.3573086486550152  0.4207099123261913  0.7363341912788380   T   T   T
  0.3472545120588940  0.4746065133203707  0.7863299555890397   T   T   T
  0.0577138370176275  0.3721847965604071  0.3590462183138660   T   T   T
  0.0590435795613795  0.4121374689439972  0.2711074805394719   T   T   T
  0.1255970182542475  0.4656654061580752  0.2265006474414978   T   T   T
  0.3135211758423368  0.9385901324711350  0.3532533174563316   T   T   T
  0.3522434559840895  0.9394720354813327  0.2637688962846517   T   T   T
  0.3388793374530545  0.8732902133501432  0.2174390074347527   T   T   T
  0.6173693644339704  0.6831901804011826  0.3576802664430375   T   T   T
  0.5797496905552643  0.6447083644402432  0.2681124173282013   T   T   T
  0.5262363572795331  0.6574688552468270  0.2235021086539795   T   T   T
  0.9384044924595842  0.6265946043699835  0.3557582658026381   T   T   T
  0.9379644641915760  0.5891203062767437  0.2649779061680080   T   T   T
  0.8715327038306609  0.5361669887370568  0.2200443938030307   T   T   T
  0.6876975309901582  0.0645362312292847  0.3529591374894013   T   T   T
  0.6481989044286169  0.0630267833129440  0.2644175719476775   T   T   T
  0.6602507163806528  0.1287144406073210  0.2183266930282953   T   T   T
  0.3743017534447300  0.3173633508588224  0.3580860530026631   T   T   T
  0.4119757782158304  0.3542868170569545  0.2672488845739071   T   T   T
  0.4640274713981386  0.3396867622517014  0.2212308212333537   T   T   T
  0.6286517571470375  0.9418583900528180  0.3555311122951458   T   T   T
  0.5891936618426000  0.9401967505311999  0.2665755568490475   T   T   T
  0.5367652185055830  0.8735206541085481  0.2206735486956960   T   T   T
  0.0610607407065379  0.6885500514543054  0.3534960549184215   T   T   T
  0.0607842608364084  0.6510882305807751  0.2626951058988390   T   T   T
  0.1270149344202241  0.6647588824636040  0.2162414900078447   T   T   T
  0.3140839299364274  0.3797599538706594  0.3571646745812483   T   T   T
  0.3519622074598087  0.4171240888231602  0.2669121511103570   T   T   T
  0.3388654876457913  0.4704723603204657  0.2226275438211457   T   T   T
  0.3745423766881314  0.0612029560406529  0.3565921277057530   T   T   T
  0.4131497110177878  0.0622533829522168  0.2670021324916662   T   T   T
  0.4656472958267307  0.1290100285881778  0.2223179061490971   T   T   T
  0.9350331627526702  0.3108777152269161  0.3542010987785832   T   T   T
  0.9362161342522974  0.3508597429330224  0.2665496827463201   T   T   T
  0.8704728134497574  0.3383015897415721  0.2197194616277242   T   T   T
  0.6809346350659637  0.6241620287437136  0.3582920654159293   T   T   T
  0.6437170713719849  0.5858651954193161  0.2681331385785515   T   T   T
  0.6590810302835644  0.5343000495364173  0.2220627241437990   T   T   T
  0.9388028027008001  0.6266996281686914  0.6448172771253878   T   T   T
  0.9388614316232516  0.5892105667035226  0.7353554311551777   T   T   T
  0.8725055202489229  0.5367559993674689  0.7818330604760917   T   T   T
  0.6931548179172452  0.0682674979614359  0.6410120680990439   T   T   T
  0.6561602422010798  0.0669988565614481  0.7330691753184863   T   T   T
  0.6641986508057882  0.1315266127746738  0.7765779431481027   T   T   T
  0.3744531048001527  0.3174769598400439  0.6465445622273183   T   T   T
  0.4134578438845254  0.3543744396058511  0.7361576406846396   T   T   T
  0.4649118427730203  0.3390951598244709  0.7815340999226538   T   T   T
  0.0537283785921053  0.3621942509402173  0.6472085894974269   T   T   T
  0.0541149886145393  0.3996232865214954  0.7380705169391089   T   T   T
  0.1200707603774538  0.4527418284661705  0.7825739826103673   T   T   T
  0.3152222406389018  0.9375620006145239  0.6416347529648625   T   T   T
  0.3538673727584010  0.9379612359322124  0.7307323964581091   T   T   T
  0.3414028231422952  0.8716543314809353  0.7758403691134513   T   T   T
  0.6121501672516700  0.6774680450611871  0.6439980741902182   T   T   T
  0.5753958380966568  0.6378026526604147  0.7333997112387772   T   T   T
  0.5205902483376753  0.6464617980944517  0.7828613676244049   T   T   T
  0.3790493218628162  0.1917337379326355  0.0008218060219775   T   T   T
  0.8075144938068717  0.1903804576314173 -0.0007944670821484   T   T   T
  0.8078276870288628  0.6202556611312382  0.0002562605145755   T   T   T
  0.6203238978121839  0.8036251994822380  0.0104945069398592   T   T   T
  0.1936872212499192  0.8106649957587484 -0.0025324079432697   T   T   T
  0.1914450865808511  0.3789802996023734  0.0158742718800616   T   T   T
  0.2843794176370770 -0.0019214395148537  0.4994563067648450   T   T   T
 -0.0068823469481860  0.2778973092342958  0.4967244237458155   T   T   T
  0.7057359699363265  0.7130883821350110  0.5032843330642854   T   T   T
  0.7217731344421554  0.0073751088425686  0.4949655724511885   T   T   T
  0.0001701700739659  0.7160608736761653  0.4998517646138367   T   T   T
  0.2854188125725086  0.2919616296307604  0.5035035912887914   T   T   T
  0.3239750316550999 -0.0014006260577955  0.5985130778136696   T   T   T
  0.4019584680704106 -0.0002858870101122  0.7781532332541033   T   T   T
  0.9923848340595250  0.3141702481689639  0.5991639503038800   T   T   T
  0.9932628613506872  0.3894485172063301  0.7830398306590459   T   T   T
  0.6665813493803214  0.6720611562341069  0.6011948139350861   T   T   T
  0.5919795152895521  0.5918635306347070  0.7804570319780947   T   T   T
  0.6856577259188653  0.0076976098196823  0.5978166451753861   T   T   T
  0.6112154621569770  0.0055529087565407  0.7837541978925460   T   T   T
  0.0001019583378272  0.6771459182448760  0.5994963497488813   T   T   T
  0.0004809689296072  0.6017013661764106  0.7817359178223782   T   T   T
  0.3256422497082297  0.3310272717470150  0.6020832905235041   T   T   T
  0.4036340236903762  0.4047294329695538  0.7836381137967625   T   T   T
  0.9956163725142149  0.3200769929022895  0.3997976503714887   T   T   T
  0.9982697630328191  0.4007181448075312  0.2229059346407820   T   T   T
  0.3234991245036509 -0.0006705198797781  0.3993678806835615   T   T   T
  0.4014487300022607  0.0013784598288701  0.2187358930311863   T   T   T
  0.6689535212456252  0.6741384600912323  0.4025367162036713   T   T   T
  0.5936070718891813  0.5966913603794625  0.2212521019600082   T   T   T
  0.9999191397466909  0.6776194613745689  0.3995115468364930   T   T   T
 -0.0008357997184320  0.6020286609083842  0.2165188846382073   T   T   T
  0.6794755825673531  0.0041765705451184  0.3978131635435235   T   T   T
  0.5997548056112412  0.0008618753963876  0.2191142099671801   T   T   T
  0.3240669816917502  0.3288838705832408  0.4025596997452215   T   T   T
  0.4002170478872116  0.4036751613209497  0.2198906252534635   T   T   T
  0.5561476124009658  0.2596743117194203  0.5008110859258267   T   T   T
  0.7390557397278879  0.2962223648933374  0.4999379422427608   T   T   T
  0.3008432064221904  0.7408553020942295  0.5009228989188595   T   T   T
  0.2630017550141138  0.5678886740869707  0.5008163315029664   T   T   T
  0.4445634534652244  0.7049892366156489  0.4922942357136251   T   T   T
  0.6930902742813839  0.4332462535841083  0.5012525651861599   T   T   T
  0.4862344475036605  0.1269803417350280  0.8749317569873426   T   T   T
  0.4834290478286746  0.1809143202612014  0.7217402829428025   T   T   T
  0.8691194358556930  0.3603357583114635  0.8695436545957964   T   T   T
  0.8145862497599903  0.3036239635698710  0.7165775053880057   T   T   T
  0.6362340718930005  0.5096041749379068  0.8741632340673664   T   T   T
  0.6952841357890556  0.5158735351941361  0.7217698313763936   T   T   T
  0.5221336320366951  0.8774298776258100  0.8739392241086544   T   T   T
  0.5331921231218665  0.8268710840121061  0.7225150464814890   T   T   T
  0.1271484809111706  0.6385259113391191  0.8729157684873529   T   T   T
  0.1817276793805901  0.6991449928879623  0.7230260310257246   T   T   T
  0.3639238745401793  0.4880898928011836  0.8860976279108439   T   T   T
  0.3227739708572584  0.5037322701694260  0.7283061612180645   T   T   T
  0.1243493225512430  0.4870913111885693  0.1304776356349884   T   T   T
  0.1785860990688796  0.4862217015194179  0.2846183634650536   T   T   T
  0.3640941849690065  0.8738415731461853  0.1239908773155661   T   T   T
  0.3028128435649857  0.8204027410917316  0.2742079239341008   T   T   T
  0.5010877564449022  0.6320005531853048  0.1302515574692768   T   T   T
  0.5092854646534921  0.6934230162178605  0.2802936817610561   T   T   T
  0.8724805319074621  0.5119524658113999  0.1260176069764601   T   T   T
  0.8183973685641579  0.5182996930877229  0.2763226835416679   T   T   T
  0.6356096852422192  0.1271529118781679  0.1237605082213351   T   T   T
  0.6944937442428953  0.1820101276871171  0.2749463179412521   T   T   T
  0.4872624818258031  0.3637215913673352  0.1263403247559657   T   T   T
  0.4821133478430673  0.3045935742912609  0.2776433760600220   T   T   T
  0.5152526553071450  0.8749121934227331  0.1246271501000548   T   T   T
  0.5167021580192814  0.8202568715931682  0.2776380927840540   T   T   T
  0.1260817872167747  0.6391243172655663  0.1228615690862043   T   T   T
  0.1802558510363909  0.7009652142441780  0.2719836043096315   T   T   T
  0.3655719886391606  0.4969656358235300  0.1303791476237686   T   T   T
  0.3019405854536892  0.4864332143369974  0.2784513779811821   T   T   T
  0.4882820642285790  0.1284636901661715  0.1270310771292253   T   T   T
  0.4842986997977416  0.1818396580952126  0.2801507135350525   T   T   T
  0.8720077439477476  0.3619122263097223  0.1244699122081249   T   T   T
  0.8171760643092624  0.3047465353151239  0.2769086655156568   T   T   T
  0.6363374130112904  0.5119629255043686  0.1264979372837340   T   T   T
  0.6937520235471200  0.5161028196672266  0.2795530891939914   T   T   T
  0.8737666806895740  0.5134389269054098  0.8765181692854256   T   T   T
  0.8191192463444517  0.5184703932864623  0.7260072687066513   T   T   T
  0.6379228179708389  0.1292246223519611  0.8700123652294109   T   T   T
  0.6962493747876948  0.1844488084718592  0.7185878078108302   T   T   T
  0.4893621216511255  0.3640804882309430  0.8753454616070024   T   T   T
  0.4815799927132402  0.3029470157263450  0.7249987549022849   T   T   T
  0.1209392231990692  0.4782179121192009  0.8754813054917719   T   T   T
  0.1719219299277162  0.4708376388928592  0.7213205204405464   T   T   T
  0.3644639195467025  0.8729999861036570  0.8715027617678527   T   T   T
  0.3087640904018029  0.8185530286155526  0.7180671538472890   T   T   T
  0.5076906967984981  0.6307392855772564  0.8827844099688197   T   T   T
  0.4902966350339142  0.6694212283030884  0.7235903606692542   T   T   T
  0.5254463850875294  0.2643643486011643  0.1008960798677254   T   T   T
  0.5684380027580728  0.2912519321123747  0.5898573919817931   T   T   T
  0.7344150090734280  0.2646040052414851  0.0981888915358245   T   T   T
  0.7063715148666180  0.2850380565264879  0.5877958166498635   T   T   T
  0.7355293556325111  0.4738998023487472  0.1008693607890825   T   T   T
  0.7206059898374674  0.4322322782579652  0.5898659687407822   T   T   T
  0.4719886284998788  0.7369386104018503  0.1002172146966862   T   T   T
  0.4379190363191333  0.7263236646426801  0.5827018025350904   T   T   T
  0.2650991037057970  0.7360115785870108  0.0966873185177589   T   T   T
  0.2795097464357789  0.7068335480576033  0.5875681453758289   T   T   T
  0.2605477609873078  0.5276665625023922  0.1033360857794033   T   T   T
  0.2941969731865209  0.5753047728478069  0.5890384532278757   T   T   T
  0.2576313101025970  0.5185591539738837  0.9045051999791121   T   T   T
  0.2926803233975495  0.5755725654251874  0.4105570163765507   T   T   T
  0.2658538785882092  0.7355739116778798  0.8990954354426840   T   T   T
  0.2791532119268330  0.7127112802041033  0.4098437781248475   T   T   T
  0.4811694553950651  0.7391917404470314  0.9013985101573344   T   T   T
  0.4235444735003117  0.7193801073373244  0.4063805188312071   T   T   T
  0.7353958521038357  0.4734106505177117  0.9013003809299698   T   T   T
  0.7196929353761131  0.4319592962843546  0.4117815377799593   T   T   T
  0.7344538734677847  0.2644837413174594  0.8984698479498833   T   T   T
  0.7088213210251750  0.2832220401328627  0.4096030393744269   T   T   T
  0.5257762412963392  0.2645599033629254  0.9011660619725012   T   T   T
  0.5693926089012197  0.2914041167941036  0.4117491384886936   T   T   T
  0.4076688206255628  0.1557670259074302  0.0013292760263762   T   T   T
  0.8433705519905339  0.2549467981572597 -0.0013888676972896   T   T   T
  0.7431814414543275  0.5911338313169014 -0.0001968562676287   T   T   T
  0.5948273599084254  0.8424265810740286  0.0077515699432427   T   T   T
  0.1573051330329675  0.7461598285262675 -0.0029263895435609   T   T   T
  0.2561367991992395  0.4099218390453037  0.0149256077440811   T   T   T
  0.1534370335161153  0.4053682727101058  0.0126170459334537   T   T   T
  0.2583331409648188  0.8458797292180191 -0.0027614035445258   T   T   T
  0.5884809601513749  0.7388951769535568  0.0107299725115960   T   T   T
  0.8437903356562447  0.5916784994887661  0.0010238554716595   T   T   T
  0.7429111589038554  0.1548416280547360 -0.0006773580707413   T   T   T
  0.4081303068835679  0.2563372249915453  0.0001761422072828   T   T   T
  0.7936680940290682  0.3981802352287478 -0.0002423784243838   T   T   T
  0.6021704047200872  0.3973772718290068  0.0023155990696978   T   T   T
  0.6008666932820870  0.2062100319917335 -0.0012612225056094   T   T   T
  0.2008671276508258  0.5983463619450109 -0.0027099663970298   T   T   T
  0.3908027695268582  0.6068691055158233 -0.0114876184874502   T   T   T
  0.4024650607035246  0.7976157233375092 -0.0056423940346351   T   T   T
  0.6239238029489091  0.2532901805064943  0.2307664996766045   T   T   T
  0.7469110606380590  0.3751990647751242  0.2318534319596355   T   T   T
  0.6250444162638332  0.3760601425512847  0.2331285234521324   T   T   T
  0.3724626619920911  0.7509486727908752  0.2289084970626797   T   T   T
  0.2485582538436752  0.6266808262260504  0.2331135436379846   T   T   T
  0.3715506480985809  0.6279427737996404  0.2263115848947281   T   T   T
  0.2467914649468380  0.6227177554205894  0.7688952179297283   T   T   T
  0.3722977810508132  0.7398830677400612  0.7670226735121348   T   T   T
  0.7477086848862627  0.3756085270074852  0.7691422088386491   T   T   T
  0.6229469322810883  0.2520990521205770  0.7688116055589493   T   T   T
  0.6252117703056420  0.3756055067144581  0.7680874312380301   T   T   T
  0.5626874852274231  0.2838153773281483  0.2488053746202734   T   T   T
  0.7161403452465499  0.2831605296202401  0.2466738551223147   T   T   T
  0.7171803249922287  0.4375446070977667  0.2495421223134501   T   T   T
  0.4331830773575655  0.7195285583302192  0.2464227539226171   T   T   T
  0.2803529710597448  0.7193834889836738  0.2473958425513103   T   T   T
  0.2801697474808797  0.5662567382387137  0.2500273751413941   T   T   T
  0.2661539356320982  0.5521973527970905  0.7493077050885770   T   T   T
  0.2819665844092931  0.7147872195843011  0.7509363182497736   T   T   T
  0.4502764321385468  0.7329027307686856  0.7456741640024586   T   T   T
  0.7175491712262434  0.4373885236050731  0.7525174141093919   T   T   T
  0.7151499113566954  0.2836044076902573  0.7508469795370845   T   T   T
  0.5622766021045237  0.2833666425627129  0.7529030214493079   T   T   T
  0.5144045176907436  0.1923821198429864  0.0004280020963852   T   T   T
  0.8065832482933684  0.3251746913953445 -0.0015544415138789   T   T   T
  0.6743589786654157  0.4840901424331405  0.0014284422164629   T   T   T
  0.4886131153281241  0.8099367454456526 -0.0008058978051925   T   T   T
  0.1924258034420326  0.6744624316661318 -0.0021058190542460   T   T   T
  0.3224318633078276  0.5178527505315448  0.0048301250264146   T   T   T
  0.1876486156954960  0.5118316738050681  0.0026034123595413   T   T   T
  0.3273971733127749  0.8079201277228596 -0.0023624227331819   T   T   T
  0.4802350898082875  0.6739505087505543  0.0026149630679661   T   T   T
  0.8078396724246324  0.4848299786406362  0.0007187947817222   T   T   T
  0.6733216366964482  0.1923741078015117 -0.0018599472442969   T   T   T
  0.5152351858887025  0.3259380205833230  0.0016491918941529   T   T   T
 
  0.00000000E+00  0.00000000E+00  0.00000000E+00
  0.00000000E+00  0.00000000E+00  0.00000000E+00
  0.00000000E+00  0.00000000E+00  0.00000000E+00
  0.00000000E+00  0.00000000E+00  0.00000000E+00
  0.00000000E+00  0.00000000E+00  0.00000000E+00
  0.00000000E+00  0.00000000E+00  0.00000000E+00
  0.00000000E+00  0.00000000E+00  0.00000000E+00
  0.00000000E+00  0.00000000E+00  0.00000000E+00
  0.00000000E+00  0.00000000E+00  0.00000000E+00
  0.00000000E+00  0.00000000E+00  0.00000000E+00
  0.00000000E+00  0.00000000E+00  0.00000000E+00
  0.00000000E+00  0.00000000E+00  0.00000000E+00
  0.00000000E+00  0.00000000E+00  0.00000000E+00
  0.00000000E+00  0.00000000E+00  0.00000000E+00
  0.00000000E+00  0.00000000E+00  0.00000000E+00
  0.00000000E+00  0.00000000E+00  0.00000000E+00
  0.00000000E+00  0.00000000E+00  0.00000000E+00
  0.00000000E+00  0.00000000E+00  0.00000000E+00
  0.00000000E+00  0.00000000E+00  0.00000000E+00
  0.00000000E+00  0.00000000E+00  0.00000000E+00
  0.00000000E+00  0.00000000E+00  0.00000000E+00
  0.00000000E+00  0.00000000E+00  0.00000000E+00
  0.00000000E+00  0.00000000E+00  0.00000000E+00
  0.00000000E+00  0.00000000E+00  0.00000000E+00
  0.00000000E+00  0.00000000E+00  0.00000000E+00
  0.00000000E+00  0.00000000E+00  0.00000000E+00
  0.00000000E+00  0.00000000E+00  0.00000000E+00
  0.00000000E+00  0.00000000E+00  0.00000000E+00
  0.00000000E+00  0.00000000E+00  0.00000000E+00
  0.00000000E+00  0.00000000E+00  0.00000000E+00
  0.00000000E+00  0.00000000E+00  0.00000000E+00
  0.00000000E+00  0.00000000E+00  0.00000000E+00
  0.00000000E+00  0.00000000E+00  0.00000000E+00
  0.00000000E+00  0.00000000E+00  0.00000000E+00
  0.00000000E+00  0.00000000E+00  0.00000000E+00
  0.00000000E+00  0.00000000E+00  0.00000000E+00
  0.00000000E+00  0.00000000E+00  0.00000000E+00
  0.00000000E+00  0.00000000E+00  0.00000000E+00
  0.00000000E+00  0.00000000E+00  0.00000000E+00
  0.00000000E+00  0.00000000E+00  0.00000000E+00
  0.00000000E+00  0.00000000E+00  0.00000000E+00
  0.00000000E+00  0.00000000E+00  0.00000000E+00
  0.00000000E+00  0.00000000E+00  0.00000000E+00
  0.00000000E+00  0.00000000E+00  0.00000000E+00
  0.00000000E+00  0.00000000E+00  0.00000000E+00
  0.00000000E+00  0.00000000E+00  0.00000000E+00
  0.00000000E+00  0.00000000E+00  0.00000000E+00
  0.00000000E+00  0.00000000E+00  0.00000000E+00
  0.00000000E+00  0.00000000E+00  0.00000000E+00
  0.00000000E+00  0.00000000E+00  0.00000000E+00
  0.00000000E+00  0.00000000E+00  0.00000000E+00
  0.00000000E+00  0.00000000E+00  0.00000000E+00
  0.00000000E+00  0.00000000E+00  0.00000000E+00
  0.00000000E+00  0.00000000E+00  0.00000000E+00
  0.00000000E+00  0.00000000E+00  0.00000000E+00
  0.00000000E+00  0.00000000E+00  0.00000000E+00
  0.00000000E+00  0.00000000E+00  0.00000000E+00
  0.00000000E+00  0.00000000E+00  0.00000000E+00
  0.00000000E+00  0.00000000E+00  0.00000000E+00
  0.00000000E+00  0.00000000E+00  0.00000000E+00
  0.00000000E+00  0.00000000E+00  0.00000000E+00
  0.00000000E+00  0.00000000E+00  0.00000000E+00
  0.00000000E+00  0.00000000E+00  0.00000000E+00
  0.00000000E+00  0.00000000E+00  0.00000000E+00
  0.00000000E+00  0.00000000E+00  0.00000000E+00
  0.00000000E+00  0.00000000E+00  0.00000000E+00
  0.00000000E+00  0.00000000E+00  0.00000000E+00
  0.00000000E+00  0.00000000E+00  0.00000000E+00
  0.00000000E+00  0.00000000E+00  0.00000000E+00
  0.00000000E+00  0.00000000E+00  0.00000000E+00
  0.00000000E+00  0.00000000E+00  0.00000000E+00
  0.00000000E+00  0.00000000E+00  0.00000000E+00
  0.00000000E+00  0.00000000E+00  0.00000000E+00
  0.00000000E+00  0.00000000E+00  0.00000000E+00
  0.00000000E+00  0.00000000E+00  0.00000000E+00
  0.00000000E+00  0.00000000E+00  0.00000000E+00
  0.00000000E+00  0.00000000E+00  0.00000000E+00
  0.00000000E+00  0.00000000E+00  0.00000000E+00
  0.00000000E+00  0.00000000E+00  0.00000000E+00
  0.00000000E+00  0.00000000E+00  0.00000000E+00
  0.00000000E+00  0.00000000E+00  0.00000000E+00
  0.00000000E+00  0.00000000E+00  0.00000000E+00
  0.00000000E+00  0.00000000E+00  0.00000000E+00
  0.00000000E+00  0.00000000E+00  0.00000000E+00
  0.00000000E+00  0.00000000E+00  0.00000000E+00
  0.00000000E+00  0.00000000E+00  0.00000000E+00
  0.00000000E+00  0.00000000E+00  0.00000000E+00
  0.00000000E+00  0.00000000E+00  0.00000000E+00
  0.00000000E+00  0.00000000E+00  0.00000000E+00
  0.00000000E+00  0.00000000E+00  0.00000000E+00
  0.00000000E+00  0.00000000E+00  0.00000000E+00
  0.00000000E+00  0.00000000E+00  0.00000000E+00
  0.00000000E+00  0.00000000E+00  0.00000000E+00
  0.00000000E+00  0.00000000E+00  0.00000000E+00
  0.00000000E+00  0.00000000E+00  0.00000000E+00
  0.00000000E+00  0.00000000E+00  0.00000000E+00
  0.00000000E+00  0.00000000E+00  0.00000000E+00
  0.00000000E+00  0.00000000E+00  0.00000000E+00
  0.00000000E+00  0.00000000E+00  0.00000000E+00
  0.00000000E+00  0.00000000E+00  0.00000000E+00
  0.00000000E+00  0.00000000E+00  0.00000000E+00
  0.00000000E+00  0.00000000E+00  0.00000000E+00
  0.00000000E+00  0.00000000E+00  0.00000000E+00
  0.00000000E+00  0.00000000E+00  0.00000000E+00
  0.00000000E+00  0.00000000E+00  0.00000000E+00
  0.00000000E+00  0.00000000E+00  0.00000000E+00
  0.00000000E+00  0.00000000E+00  0.00000000E+00
  0.00000000E+00  0.00000000E+00  0.00000000E+00
  0.00000000E+00  0.00000000E+00  0.00000000E+00
  0.00000000E+00  0.00000000E+00  0.00000000E+00
  0.00000000E+00  0.00000000E+00  0.00000000E+00
  0.00000000E+00  0.00000000E+00  0.00000000E+00
  0.00000000E+00  0.00000000E+00  0.00000000E+00
  0.00000000E+00  0.00000000E+00  0.00000000E+00
  0.00000000E+00  0.00000000E+00  0.00000000E+00
  0.00000000E+00  0.00000000E+00  0.00000000E+00
  0.00000000E+00  0.00000000E+00  0.00000000E+00
  0.00000000E+00  0.00000000E+00  0.00000000E+00
  0.00000000E+00  0.00000000E+00  0.00000000E+00
  0.00000000E+00  0.00000000E+00  0.00000000E+00
  0.00000000E+00  0.00000000E+00  0.00000000E+00
  0.00000000E+00  0.00000000E+00  0.00000000E+00
  0.00000000E+00  0.00000000E+00  0.00000000E+00
  0.00000000E+00  0.00000000E+00  0.00000000E+00
  0.00000000E+00  0.00000000E+00  0.00000000E+00
  0.00000000E+00  0.00000000E+00  0.00000000E+00
  0.00000000E+00  0.00000000E+00  0.00000000E+00
  0.00000000E+00  0.00000000E+00  0.00000000E+00
  0.00000000E+00  0.00000000E+00  0.00000000E+00
  0.00000000E+00  0.00000000E+00  0.00000000E+00
  0.00000000E+00  0.00000000E+00  0.00000000E+00
  0.00000000E+00  0.00000000E+00  0.00000000E+00
  0.00000000E+00  0.00000000E+00  0.00000000E+00
  0.00000000E+00  0.00000000E+00  0.00000000E+00
  0.00000000E+00  0.00000000E+00  0.00000000E+00
  0.00000000E+00  0.00000000E+00  0.00000000E+00
  0.00000000E+00  0.00000000E+00  0.00000000E+00
  0.00000000E+00  0.00000000E+00  0.00000000E+00
  0.00000000E+00  0.00000000E+00  0.00000000E+00
  0.00000000E+00  0.00000000E+00  0.00000000E+00
  0.00000000E+00  0.00000000E+00  0.00000000E+00
  0.00000000E+00  0.00000000E+00  0.00000000E+00
  0.00000000E+00  0.00000000E+00  0.00000000E+00
  0.00000000E+00  0.00000000E+00  0.00000000E+00
  0.00000000E+00  0.00000000E+00  0.00000000E+00
  0.00000000E+00  0.00000000E+00  0.00000000E+00
  0.00000000E+00  0.00000000E+00  0.00000000E+00
  0.00000000E+00  0.00000000E+00  0.00000000E+00
  0.00000000E+00  0.00000000E+00  0.00000000E+00
  0.00000000E+00  0.00000000E+00  0.00000000E+00
  0.00000000E+00  0.00000000E+00  0.00000000E+00
  0.00000000E+00  0.00000000E+00  0.00000000E+00
  0.00000000E+00  0.00000000E+00  0.00000000E+00
  0.00000000E+00  0.00000000E+00  0.00000000E+00
  0.00000000E+00  0.00000000E+00  0.00000000E+00
  0.00000000E+00  0.00000000E+00  0.00000000E+00
  0.00000000E+00  0.00000000E+00  0.00000000E+00
  0.00000000E+00  0.00000000E+00  0.00000000E+00
  0.00000000E+00  0.00000000E+00  0.00000000E+00