Ov-Ti                                   
   1.00000000000000     
    19.0415080000000003    0.0000000000000000    0.0000000000000000
     0.0000000000000000   19.0312209999999986    0.0000000000000000
     0.0000000000000000    0.0000000000000000   18.1449719999999992
   H    C    N    O    Ti
    68    96    12    71    16
Selective dynamics
Direct
  0.5378064850997717  0.1761664235136809  0.5117535927141468   T   T   T
  0.5717837673184467  0.8912873204656148  0.5081651116913113   T   T   T
  0.5784968461015564  0.5784517019576920  0.0026302889802584   T   T   T
  0.5821068822386133  0.4198629123368020  0.9997647158052247   T   T   T
  0.6051411474242405  0.0675488286909583  0.9855935918511518   T   T   T
  0.6080725513681230  0.9343694168199567  0.9846726437661549   T   T   T
  0.6212960386516081  0.1343162348678296  0.5109972933258617   T   T   T
  0.6193484552631574  0.8157958221212633  0.8641587977729486   T   T   T
  0.6224382888434153  0.8774217094527340  0.7907647257063637   T   T   T
  0.0653057012537575  0.3861722119780494  0.9861222527829696   T   T   T
  0.6379702713251737  0.8960751009390964  0.2907557227808936   T   T   T
  0.6444761213052316  0.8171737928444076  0.1897640735193519   T   T   T
  0.6481732048653246  0.1839618821339360  0.1982361417726284   T   T   T
  0.6464044534255885  0.1958031949474189  0.8053604116500603   T   T   T
  0.6898136682751601  0.1508026276229464  0.6818832682936284   T   T   T
  0.6945670340457525  0.8907865235988355  0.3680100405620134   T   T   T
  0.6971003089556442  0.1481045129145284  0.3225372994798698   T   T   T
  0.7002619797571641  0.8634405075390977  0.6873779609390797   T   T   T
  0.0732370077850447  0.6122767617169179  0.9877272436525650   T   T   T
  0.0818741560168957  0.0810246861468734  0.5340300939185216   T   T   T
  0.7922820210975676  0.6468712715773284  0.8062920735281860   T   T   T
  0.8054398758105975  0.3458301334987322  0.1847340459349838   T   T   T
  0.8055238737755547  0.6585019417625527  0.1888942315427189   T   T   T
  0.8128627281141408  0.3734953321657941  0.8678256583244157   T   T   T
  0.0844747416835560  0.9209859202570363  0.5344657513783946   T   T   T
  0.8418630011473262  0.6873523076967890  0.6839804272092022   T   T   T
  0.8468627242371674  0.7008295150076882  0.3136576157557893   T   T   T
  0.8588658662184239  0.3004116972446934  0.6894614108083897   T   T   T
  0.8719425791138176  0.3727462425391408  0.7923270426840798   T   T   T
  0.8828263821496540  0.6345384076726049  0.9930006222677519   T   T   T
  0.8868825012395150  0.5624145869572612  0.5093964335983190   T   T   T
  0.8865317208532164  0.3046192332443083  0.3614504297952255   T   T   T
  0.8880252961011078  0.3582071664644122  0.2818581732411354   T   T   T
  0.8932902470199782  0.4300086720235821  0.5093396184173485   T   T   T
  0.9226504941164131  0.0797504315969865  0.5332267676388969   T   T   T
  0.9221511293956585  0.9172879083213638  0.5338252677394131   T   T   T
  0.9327826897496276  0.3920257544544742  0.9885573622192274   T   T   T
  0.9659979445877601  0.6769689316887857  0.9907707645743077   T   T   T
  0.1074201017880610  0.6409022465796049  0.2820912412369923   T   T   T
  0.1098205063880734  0.6979773102125398  0.3591715124596390   T   T   T
  0.1127823312790952  0.5715498792382383  0.5090544512376336   T   T   T
  0.1277323586283289  0.6224750711488738  0.7942656189590461   T   T   T
  0.1367012678198758  0.3811359610261864  0.5088907935790594   T   T   T
  0.1396350150647023  0.6995018895502787  0.6915869902165653   T   T   T
  0.1520595652249686  0.3012062914865587  0.3134952052007906   T   T   T
  0.1537368273807451  0.3102704928299486  0.6870990705347274   T   T   T
  0.1779139999920631  0.4649051942116174  0.5090422502310856   T   T   T
  0.1878133812517782  0.6221948362566015  0.8690327354452443   T   T   T
  0.1926905270411959  0.3496384517284167  0.1910530212649849   T   T   T
  0.1918760342810497  0.6453038616743718  0.1860368931807346   T   T   T
  0.2004014628488177  0.3520489653779577  0.8099615997717796   T   T   T
  0.3054169134482956  0.1427164999419792  0.6885739179339698   T   T   T
  0.3024788572370540  0.8486727155687990  0.3131417152030532   T   T   T
  0.3039444994605341  0.1090960247407610  0.3572419695981613   T   T   T
  0.3124974798581656  0.8450211855571399  0.6865656678113720   T   T   T
  0.3197569991993423  0.0400596160749940  0.9962715238817299   T   T   T
  0.3499234490368214  0.8068438846445480  0.1906704439680316   T   T   T
  0.3534500511407737  0.7984393757950334  0.8098331487024543   T   T   T
  0.3545794800308915  0.1919788805899978  0.1838291054120854   T   T   T
  0.3601671629736411  0.1069671461890520  0.2795591820305890   T   T   T
  0.3632615022597555  0.1225397525944859  0.9958245007889189   T   T   T
  0.3838566782570518  0.1927540267614405  0.8644844709458587   T   T   T
  0.3845428045033126  0.1332642656174876  0.7890854438970011   T   T   T
  0.3821928223793221  0.9310774488653681  0.9927005863492346   T   T   T
  0.4189434737147544  0.5837556525856402  0.9641296025957707   T   T   T
  0.4195252880827710  0.4202533644788894  0.9669848842510677   T   T   T
  0.4306772049116406  0.1111568597824485  0.5107144938734284   T   T   T
  0.4394417656287007  0.8850937296131981  0.5085395516262013   T   T   T
  0.5366015264985665  0.0680054399934666  0.5101681651021495   T   T   T
  0.5397995130416388  0.9391026970212429  0.5087418807880999   T   T   T
  0.5569604009323174  0.0362279801532779  0.9869362188000751   T   T   T
  0.5588366292608048  0.9638367321519566  0.9861334588784519   T   T   T
  0.5758381156632520  0.0038444966339203  0.5092451063971711   T   T   T
  0.0648463833968719  0.5396496892953507  0.5091501771676781   T   T   T
  0.6530576659765670  0.0029497838147787  0.5088569984624252   T   T   T
  0.0698771120370389  0.4654775005889173  0.5089504993804559   T   T   T
  0.6890098539315300  0.7923193512867743  0.2178273888297456   T   T   T
  0.6927969270523663  0.2109631938028871  0.2234459984784871   T   T   T
  0.6909273682314410  0.7942552097050015  0.7826137475995060   T   T   T
  0.7006321096781677  0.2901837350358133  0.1123558963901324   T   T   T
  0.6929198174549815  0.2179626755167963  0.7785612673845450   T   T   T
  0.6935081535307203  0.7040298308899701  0.8849576262603847   T   T   T
  0.6984872267313169  0.7122678082421028  0.1106402681264096   T   T   T
  0.6997719563047901  0.2956844454072518  0.8869905584198093   T   T   T
  0.7108845791931032  0.8167969887455317  0.2876983433842284   T   T   T
  0.7161915083935961  0.1934228985835088  0.7112833865350412   T   T   T
  0.7194555880323339  0.1919611210806628  0.2913490969697303   T   T   T
  0.7195657944198482  0.8157497391542692  0.7144550590660331   T   T   T
  0.7187081860641998  0.7316683113418456  0.8147234043905348   T   T   T
  0.7253798711044723  0.2668788780570437  0.1859040870057467   T   T   T
  0.7229791693373567  0.7367554662293450  0.1837724597191290   T   T   T
  0.7278870403168757  0.2725519745492040  0.8161161385809501   T   T   T
  0.0755405229231090  0.4995962510253282  0.9869896364490752   T   T   T
  0.7694167174525472  0.7820878463700132  0.3213866146534994   T   T   T
  0.7725325245461814  0.7774919567470095  0.6805192682810419   T   T   T
  0.7765190182566479  0.2246004093615366  0.6803223275002622   T   T   T
  0.7727829469357078  0.6942044553015846  0.7788893709442654   T   T   T
  0.7771513871698295  0.2272470127505844  0.3232320345194767   T   T   T
  0.7818083081141735  0.3028512934945944  0.2162434098256537   T   T   T
  0.7801370977034737  0.7022074960313333  0.2173959301886364   T   T   T
  0.7893987866977149  0.3039709592943017  0.7846827900975032   T   T   T
  0.7986296715885787  0.8050350416525911  0.3917604661899421   T   T   T
  0.8044634728502088  0.1989804348424572  0.6090084671699580   T   T   T
  0.8007969616718595  0.8033720350977287  0.6093602820277898   T   T   T
  0.8000646238257560  0.7159574185527635  0.7123313989935142   T   T   T
  0.8023814101128820  0.7253883015429822  0.2854468722860135   T   T   T
  0.8044250327634791  0.2008212331098962  0.3930478179910391   T   T   T
  0.8092284493019027  0.2848917985173569  0.2858393478669432   T   T   T
  0.8120334115624488  0.2782499839523661  0.7157622682247781   T   T   T
  0.8513279311576222  0.5032412830350835  0.9932029439095463   T   T   T
  0.9285505279238252  0.5045034340441669  0.9894583698704544   T   T   T
  0.9371702388517930  0.5346851600019621  0.5093554271510825   T   T   T
  0.9410270280128185  0.4620899671775516  0.5093085186681083   T   T   T
  0.9646774333806946  0.4398793955976042  0.9880082072983086   T   T   T
  0.9675400947924252  0.5687775135941644  0.9886987803660265   T   T   T
  0.9989488408576704  0.6517642735925135  0.5087891777946499   T   T   T
  0.0002740680539604  0.5734980228605066  0.5092586799721813   T   T   T
  0.1534064339858490  0.4984122386684914  0.9881693839667688   T   T   T
  0.1866936946217138  0.7207220447631069  0.7183560812027059   T   T   T
  0.1876792558137332  0.7128418255901469  0.2828621740918560   T   T   T
  0.1962856984776710  0.7990195129504112  0.3890959756965745   T   T   T
  0.1970997895402883  0.2835658945411733  0.7149123936754659   T   T   T
  0.1965734210478537  0.2780168775954989  0.2840643688661122   T   T   T
  0.2018321342304336  0.1976510052870707  0.6094789897663069   T   T   T
  0.1981249614559637  0.7999974905182892  0.6105407262591230   T   T   T
  0.2028115990259116  0.1947298146960158  0.3884505978459601   T   T   T
  0.2081501643487525  0.6942475546568596  0.7876443326884643   T   T   T
  0.2183262225765496  0.3045535202396597  0.2169180581174613   T   T   T
  0.2152809014685353  0.6904252101221541  0.2144433972273300   T   T   T
  0.2209682689834842  0.7712205643423283  0.3183161064342249   T   T   T
  0.2227386495329572  0.3061084648299559  0.7821971085359362   T   T   T
  0.2238133250293402  0.7737338190887708  0.6830884005577419   T   T   T
  0.2281173012338124  0.2241982247092033  0.6817069148705629   T   T   T
  0.2300218255777396  0.2200851865190339  0.3176552626522937   T   T   T
  0.2701455639411054  0.7235206915548303  0.8199603010498083   T   T   T
  0.2757556512208499  0.2723098910738033  0.1813957389506851   T   T   T
  0.2722485158839272  0.7239556670693432  0.1823093820375817   T   T   T
  0.2785699973372573  0.2716320018816264  0.8182496810203056   T   T   T
  0.2829186857521741  0.1888871086335514  0.7159217638385419   T   T   T
  0.2788155229034629  0.8041572939825579  0.2841067754214383   T   T   T
  0.2843885038349833  0.8031533050070314  0.7154033451603206   T   T   T
  0.2881480081214555  0.1871969241367554  0.2814257727199362   T   T   T
  0.2985072987037115  0.6985137171298501  0.8906069145020833   T   T   T
  0.3024491778823652  0.3002353809411855  0.1100175278345827   T   T   T
  0.2997959826313674  0.6968747241603886  0.1110197072716838   T   T   T
  0.3032181488673141  0.2998868246936068  0.8891499687932028   T   T   T
  0.3097464310120488  0.2110308089237893  0.7847966303084245   T   T   T
  0.3064247768301826  0.7776040281304691  0.7828700878918259   T   T   T
  0.3048022648466747  0.7817146629049398  0.2169931761381003   T   T   T
  0.3096992756286793  0.2151550978959476  0.2128411106784937   T   T   T
  0.0050943843231750  0.3489471748640222  0.5082924654299911   T   T   T
  0.3503664884366330  0.9973028950549776  0.5091696506925469   T   T   T
  0.0372516652737091  0.4362762423364576  0.9867406724476773   T   T   T
  0.0415406955493436  0.5641777640286245  0.9874982596300568   T   T   T
  0.4285522211207932  0.9985399611514427  0.5097219826589670   T   T   T
  0.4276329058854835  0.0362620911565087  0.9923833238738787   T   T   T
  0.4305974517121663  0.9621983285625658  0.9909031062974738   T   T   T
  0.4624671264114186  0.0631492769705921  0.5102910081032677   T   T   T
  0.4672210596426112  0.9353590856288254  0.5089988022651736   T   T   T
  0.0058225596707461  0.4260907960904981  0.5089922298581137   T   T   T
  0.4929465969023550  0.0732025977505229  0.9897579867764899   T   T   T
  0.4948881429313564  0.8498329013356525  0.9884224716759393   T   T   T
  0.4944785939897279  0.9274387651687550  0.9879908297549445   T   T   T
  0.4967178032676773  0.1497644823853233  0.9904177493738823   T   T   T
  0.5676439436739965  0.1320419934911813  0.5109781550461278   T   T   T
  0.6397908057391747  0.8327410200969240  0.8151421990970453   T   T   T
  0.6760063376797764  0.8708053560328503  0.3195342832523383   T   T   T
  0.8268561342946811  0.3563284852575042  0.8166342026137096   T   T   T
  0.8634030085196993  0.3223668101359182  0.3141746800554260   T   T   T
  0.9363231679564594  0.6327657774369743  0.9891510939466758   T   T   T
  0.1322060119755379  0.6782147989132221  0.3123651665580836   T   T   T
  0.1340070629243607  0.4347633432084579  0.5087232881123930   T   T   T
  0.1694551194233978  0.6435872057579296  0.8210153983754677   T   T   T
  0.3232525535803672  0.1317291687823595  0.3103699563260934   T   T   T
  0.3626773375688557  0.1742260367601839  0.8164818356961869   T   T   T
  0.3645333994639192  0.0688973825249566  0.9969395631766262   T   T   T
  0.5547991161001176  0.8195592396818012  0.9877187261733363   T   T   T
  0.5569797227897594  0.1792133523191226  0.9902767058718714   T   T   T
  0.0579144695344629  0.6840099786642390  0.5094163437417516   T   T   T
  0.6067588666223990  0.6192698369327528  0.0154710898018704   T   T   T
  0.6110569268396785  0.3796628510997737  0.0130898958743276   T   T   T
  0.0642517561610472  0.3157768267414424  0.5070147288450687   T   T   T
  0.6505329968513154  0.2582982419148343  0.0806975443968707   T   T   T
  0.6460663866564532  0.7417413141586107  0.0804363651480534   T   T   T
  0.6427196261052990  0.7341927982173443  0.9186895213613453   T   T   T
  0.6467964732980254  0.2655667590858825  0.9157585798762053   T   T   T
  0.6849563493149529  0.9436586581637424  0.5089288987953021   T   T   T
  0.6864037715929279  0.0619563472719608  0.5086931653972628   T   T   T
  0.6779109553986702  0.5007486477602429 -0.0033699006774179   T   T   T
  0.7338047030835807  0.3427670110022493  0.0849881131343121   T   T   T
  0.7254589673666192  0.6496579518203025  0.9105937163394474   T   T   T
  0.7334927696603193  0.6615865879029681  0.0819286773634757   T   T   T
  0.7324088907808110  0.3474564307035800  0.9180214855769628   T   T   T
  0.7718807026085283  0.1483540958749380  0.5785707499091672   T   T   T
  0.7692589448519298  0.8567578477669547  0.4250246812166799   T   T   T
  0.7721981282340341  0.8583647490720429  0.5827578137101265   T   T   T
  0.7742098082423728  0.1477350399390912  0.4221536596746008   T   T   T
  0.7946875698488023  0.0012640222943634  0.4316976398111544   T   T   T
  0.8139287042233008  0.0030180020343125  0.5676431474139635   T   T   T
  0.8178037541236713  0.5618595621243830  0.9970205397700891   T   T   T
  0.8199906571783517  0.4437274654276636  0.9931249742849320   T   T   T
  0.8525815459261687  0.7737894071673975  0.4180574046510901   T   T   T
  0.8511480976594676  0.7698899118068916  0.5794426087171536   T   T   T
  0.8590464729050931  0.2287710638674180  0.5828935466267118   T   T   T
  0.8579348979179632  0.2306291865860684  0.4227518784919512   T   T   T
  0.8920321667919761  0.8915059641405506  0.4996269515926827   T   T   T
  0.8951196940359418  0.1093487393232596  0.5000527019547206   T   T   T
  0.9393612461366162  0.6825869232282790  0.5077565122890901   T   T   T
  0.9459117299369106  0.3167485926017257  0.5090864387073971   T   T   T
  0.1099853514760475  0.8908085889000082  0.5000782345817862   T   T   T
  0.1114207653085149  0.1072757178186152  0.4996656058862308   T   T   T
  0.1432818220948413  0.7698850557918121  0.4205217209503677   T   T   T
  0.1439815277061414  0.7704338182285475  0.5829759011641631   T   T   T
  0.1513453047800380  0.2306653175766553  0.5789837989547902   T   T   T
  0.1501259247930400  0.2260668220354987  0.4175586059581848   T   T   T
  0.1843687485050940  0.4389498145165548  0.9890304942340041   T   T   T
  0.1855408195062343  0.5575549173296350  0.9882357362891157   T   T   T
  0.1910354340708174  0.9961793958098974  0.5661272573774138   T   T   T
  0.2110600224473986  0.9979066660420977  0.4311348504514788   T   T   T
  0.2280163986739549  0.8516390593664753  0.4178214683978553   T   T   T
  0.2315228129165549  0.1434050633431577  0.5822859169372293   T   T   T
  0.2323039057089314  0.1417464195853903  0.4195353702548036   T   T   T
  0.2315311711619090  0.8503152990890959  0.5802620461190766   T   T   T
  0.2683857619509338  0.6461272743905065  0.9224926617803090   T   T   T
  0.2713394891944216  0.3526114223863092  0.0810220341752262   T   T   T
  0.2722420972787541  0.3533798045170369  0.9167057193623528   T   T   T
  0.2714845529879849  0.6419711937873872  0.0838621321233850   T   T   T
  0.2911544442476759  0.4974847379269628  0.0693897089100542   T   T   T
  0.3133377684233816  0.4989565623797780  0.9348316443060801   T   T   T
  0.3182571356015259  0.0564297382412468  0.5095809339545093   T   T   T
  0.3193366294981306  0.9378160110057380  0.5082009736135323   T   T   T
  0.0059211953500333  0.1887133071239693  0.5660701782434758   T   T   T
  0.3519903885967238  0.7296211396676393  0.9178526417463624   T   T   T
  0.3505704570860859  0.7295051973257648  0.0808774172232914   T   T   T
  0.3552075401497253  0.2692793193511859  0.9210745053869019   T   T   T
  0.3558909301830578  0.2703123657261488  0.0816541316002453   T   T   T
  0.0033310439659380  0.2078548925029079  0.4307928494997620   T   T   T
  0.9973146394046584  0.8111804132298492  0.5662397226872748   T   T   T
  0.3915102905499375  0.6090548796194193  0.0011873058921094   T   T   T
  0.3928163459669289  0.3916049595789175  0.0018451654992125   T   T   T
  0.4360263310157546  0.8178484030121314  0.9896371953802671   T   T   T
  0.4385558568432997  0.1847465245690147  0.9904550489602856   T   T   T
  0.4959731643990063  0.7140548112392873  0.0706884355268629   T   T   T
  0.9995182770620812  0.7913367794287151  0.4312133837576692   T   T   T
  0.5019654406459667  0.3083127968702895  0.9353576642522302   T   T   T
  0.4977983453911778  0.6912886155360130  0.9360392924247938   T   T   T
  0.5019800390744783  0.2880791383946160  0.0704478909827155   T   T   T
  0.5692158542805429  0.7138596701288882  0.0034532232835940   T   T   T
  0.5746192158813664  0.2845872845505275  0.0008737731627181   T   T   T
  0.0710372662441944  0.7912761079487540  0.5021035146207293   T   T   T
  0.7127397288591636  0.5917097815776931  0.0012775855207349   T   T   T
  0.7163992869320204  0.4111830260715625  0.0035192686971401   T   T   T
  0.0775012836541941  0.2088164479876132  0.4974571675130794   T   T   T
  0.7924525360092367  0.9300153440054775  0.5028026652884416   T   T   T
  0.7939377163938776  0.0744391617786467  0.4992700380006675   T   T   T
  0.9254226807703020  0.7895291622704964  0.4980288581350999   T   T   T
  0.9322598458211762  0.2097267849529253  0.5020078189608048   T   T   T
  0.2114296806056136  0.0695223675714474  0.5017063195603780   T   T   T
  0.2124168172340496  0.9238342494382615  0.4982733191006232   T   T   T
  0.2917656131958308  0.5709891187072176  0.0019714290133668   T   T   T
  0.2908304462225703  0.4253824222444654  0.9994534493493166   T   T   T
  0.4240715744337039  0.7116175530565715  0.0002342262515804   T   T   T
  0.4295633804680075  0.2915153173144176  0.0023350755215725   T   T   T
 
  0.00000000E+00  0.00000000E+00  0.00000000E+00
  0.00000000E+00  0.00000000E+00  0.00000000E+00
  0.00000000E+00  0.00000000E+00  0.00000000E+00
  0.00000000E+00  0.00000000E+00  0.00000000E+00
  0.00000000E+00  0.00000000E+00  0.00000000E+00
  0.00000000E+00  0.00000000E+00  0.00000000E+00
  0.00000000E+00  0.00000000E+00  0.00000000E+00
  0.00000000E+00  0.00000000E+00  0.00000000E+00
  0.00000000E+00  0.00000000E+00  0.00000000E+00
  0.00000000E+00  0.00000000E+00  0.00000000E+00
  0.00000000E+00  0.00000000E+00  0.00000000E+00
  0.00000000E+00  0.00000000E+00  0.00000000E+00
  0.00000000E+00  0.00000000E+00  0.00000000E+00
  0.00000000E+00  0.00000000E+00  0.00000000E+00
  0.00000000E+00  0.00000000E+00  0.00000000E+00
  0.00000000E+00  0.00000000E+00  0.00000000E+00
  0.00000000E+00  0.00000000E+00  0.00000000E+00
  0.00000000E+00  0.00000000E+00  0.00000000E+00
  0.00000000E+00  0.00000000E+00  0.00000000E+00
  0.00000000E+00  0.00000000E+00  0.00000000E+00
  0.00000000E+00  0.00000000E+00  0.00000000E+00
  0.00000000E+00  0.00000000E+00  0.00000000E+00
  0.00000000E+00  0.00000000E+00  0.00000000E+00
  0.00000000E+00  0.00000000E+00  0.00000000E+00
  0.00000000E+00  0.00000000E+00  0.00000000E+00
  0.00000000E+00  0.00000000E+00  0.00000000E+00
  0.00000000E+00  0.00000000E+00  0.00000000E+00
  0.00000000E+00  0.00000000E+00  0.00000000E+00
  0.00000000E+00  0.00000000E+00  0.00000000E+00
  0.00000000E+00  0.00000000E+00  0.00000000E+00
  0.00000000E+00  0.00000000E+00  0.00000000E+00
  0.00000000E+00  0.00000000E+00  0.00000000E+00
  0.00000000E+00  0.00000000E+00  0.00000000E+00
  0.00000000E+00  0.00000000E+00  0.00000000E+00
  0.00000000E+00  0.00000000E+00  0.00000000E+00
  0.00000000E+00  0.00000000E+00  0.00000000E+00
  0.00000000E+00  0.00000000E+00  0.00000000E+00
  0.00000000E+00  0.00000000E+00  0.00000000E+00
  0.00000000E+00  0.00000000E+00  0.00000000E+00
  0.00000000E+00  0.00000000E+00  0.00000000E+00
  0.00000000E+00  0.00000000E+00  0.00000000E+00
  0.00000000E+00  0.00000000E+00  0.00000000E+00
  0.00000000E+00  0.00000000E+00  0.00000000E+00
  0.00000000E+00  0.00000000E+00  0.00000000E+00
  0.00000000E+00  0.00000000E+00  0.00000000E+00
  0.00000000E+00  0.00000000E+00  0.00000000E+00
  0.00000000E+00  0.00000000E+00  0.00000000E+00
  0.00000000E+00  0.00000000E+00  0.00000000E+00
  0.00000000E+00  0.00000000E+00  0.00000000E+00
  0.00000000E+00  0.00000000E+00  0.00000000E+00
  0.00000000E+00  0.00000000E+00  0.00000000E+00
  0.00000000E+00  0.00000000E+00  0.00000000E+00
  0.00000000E+00  0.00000000E+00  0.00000000E+00
  0.00000000E+00  0.00000000E+00  0.00000000E+00
  0.00000000E+00  0.00000000E+00  0.00000000E+00
  0.00000000E+00  0.00000000E+00  0.00000000E+00
  0.00000000E+00  0.00000000E+00  0.00000000E+00
  0.00000000E+00  0.00000000E+00  0.00000000E+00
  0.00000000E+00  0.00000000E+00  0.00000000E+00
  0.00000000E+00  0.00000000E+00  0.00000000E+00
  0.00000000E+00  0.00000000E+00  0.00000000E+00
  0.00000000E+00  0.00000000E+00  0.00000000E+00
  0.00000000E+00  0.00000000E+00  0.00000000E+00
  0.00000000E+00  0.00000000E+00  0.00000000E+00
  0.00000000E+00  0.00000000E+00  0.00000000E+00
  0.00000000E+00  0.00000000E+00  0.00000000E+00
  0.00000000E+00  0.00000000E+00  0.00000000E+00
  0.00000000E+00  0.00000000E+00  0.00000000E+00
  0.00000000E+00  0.00000000E+00  0.00000000E+00
  0.00000000E+00  0.00000000E+00  0.00000000E+00
  0.00000000E+00  0.00000000E+00  0.00000000E+00
  0.00000000E+00  0.00000000E+00  0.00000000E+00
  0.00000000E+00  0.00000000E+00  0.00000000E+00
  0.00000000E+00  0.00000000E+00  0.00000000E+00
  0.00000000E+00  0.00000000E+00  0.00000000E+00
  0.00000000E+00  0.00000000E+00  0.00000000E+00
  0.00000000E+00  0.00000000E+00  0.00000000E+00
  0.00000000E+00  0.00000000E+00  0.00000000E+00
  0.00000000E+00  0.00000000E+00  0.00000000E+00
  0.00000000E+00  0.00000000E+00  0.00000000E+00
  0.00000000E+00  0.00000000E+00  0.00000000E+00
  0.00000000E+00  0.00000000E+00  0.00000000E+00
  0.00000000E+00  0.00000000E+00  0.00000000E+00
  0.00000000E+00  0.00000000E+00  0.00000000E+00
  0.00000000E+00  0.00000000E+00  0.00000000E+00
  0.00000000E+00  0.00000000E+00  0.00000000E+00
  0.00000000E+00  0.00000000E+00  0.00000000E+00
  0.00000000E+00  0.00000000E+00  0.00000000E+00
  0.00000000E+00  0.00000000E+00  0.00000000E+00
  0.00000000E+00  0.00000000E+00  0.00000000E+00
  0.00000000E+00  0.00000000E+00  0.00000000E+00
  0.00000000E+00  0.00000000E+00  0.00000000E+00
  0.00000000E+00  0.00000000E+00  0.00000000E+00
  0.00000000E+00  0.00000000E+00  0.00000000E+00
  0.00000000E+00  0.00000000E+00  0.00000000E+00
  0.00000000E+00  0.00000000E+00  0.00000000E+00
  0.00000000E+00  0.00000000E+00  0.00000000E+00
  0.00000000E+00  0.00000000E+00  0.00000000E+00
  0.00000000E+00  0.00000000E+00  0.00000000E+00
  0.00000000E+00  0.00000000E+00  0.00000000E+00
  0.00000000E+00  0.00000000E+00  0.00000000E+00
  0.00000000E+00  0.00000000E+00  0.00000000E+00
  0.00000000E+00  0.00000000E+00  0.00000000E+00
  0.00000000E+00  0.00000000E+00  0.00000000E+00
  0.00000000E+00  0.00000000E+00  0.00000000E+00
  0.00000000E+00  0.00000000E+00  0.00000000E+00
  0.00000000E+00  0.00000000E+00  0.00000000E+00
  0.00000000E+00  0.00000000E+00  0.00000000E+00
  0.00000000E+00  0.00000000E+00  0.00000000E+00
  0.00000000E+00  0.00000000E+00  0.00000000E+00
  0.00000000E+00  0.00000000E+00  0.00000000E+00
  0.00000000E+00  0.00000000E+00  0.00000000E+00
  0.00000000E+00  0.00000000E+00  0.00000000E+00
  0.00000000E+00  0.00000000E+00  0.00000000E+00
  0.00000000E+00  0.00000000E+00  0.00000000E+00
  0.00000000E+00  0.00000000E+00  0.00000000E+00
  0.00000000E+00  0.00000000E+00  0.00000000E+00
  0.00000000E+00  0.00000000E+00  0.00000000E+00
  0.00000000E+00  0.00000000E+00  0.00000000E+00
  0.00000000E+00  0.00000000E+00  0.00000000E+00
  0.00000000E+00  0.00000000E+00  0.00000000E+00
  0.00000000E+00  0.00000000E+00  0.00000000E+00
  0.00000000E+00  0.00000000E+00  0.00000000E+00
  0.00000000E+00  0.00000000E+00  0.00000000E+00
  0.00000000E+00  0.00000000E+00  0.00000000E+00
  0.00000000E+00  0.00000000E+00  0.00000000E+00
  0.00000000E+00  0.00000000E+00  0.00000000E+00
  0.00000000E+00  0.00000000E+00  0.00000000E+00
  0.00000000E+00  0.00000000E+00  0.00000000E+00
  0.00000000E+00  0.00000000E+00  0.00000000E+00
  0.00000000E+00  0.00000000E+00  0.00000000E+00
  0.00000000E+00  0.00000000E+00  0.00000000E+00
  0.00000000E+00  0.00000000E+00  0.00000000E+00
  0.00000000E+00  0.00000000E+00  0.00000000E+00
  0.00000000E+00  0.00000000E+00  0.00000000E+00
  0.00000000E+00  0.00000000E+00  0.00000000E+00
  0.00000000E+00  0.00000000E+00  0.00000000E+00
  0.00000000E+00  0.00000000E+00  0.00000000E+00
  0.00000000E+00  0.00000000E+00  0.00000000E+00
  0.00000000E+00  0.00000000E+00  0.00000000E+00
  0.00000000E+00  0.00000000E+00  0.00000000E+00
  0.00000000E+00  0.00000000E+00  0.00000000E+00
  0.00000000E+00  0.00000000E+00  0.00000000E+00
  0.00000000E+00  0.00000000E+00  0.00000000E+00
  0.00000000E+00  0.00000000E+00  0.00000000E+00
  0.00000000E+00  0.00000000E+00  0.00000000E+00
  0.00000000E+00  0.00000000E+00  0.00000000E+00
  0.00000000E+00  0.00000000E+00  0.00000000E+00
  0.00000000E+00  0.00000000E+00  0.00000000E+00
  0.00000000E+00  0.00000000E+00  0.00000000E+00
  0.00000000E+00  0.00000000E+00  0.00000000E+00
  0.00000000E+00  0.00000000E+00  0.00000000E+00
  0.00000000E+00  0.00000000E+00  0.00000000E+00
  0.00000000E+00  0.00000000E+00  0.00000000E+00
  0.00000000E+00  0.00000000E+00  0.00000000E+00
  0.00000000E+00  0.00000000E+00  0.00000000E+00
  0.00000000E+00  0.00000000E+00  0.00000000E+00
  0.00000000E+00  0.00000000E+00  0.00000000E+00
  0.00000000E+00  0.00000000E+00  0.00000000E+00
  0.00000000E+00  0.00000000E+00  0.00000000E+00
  0.00000000E+00  0.00000000E+00  0.00000000E+00
  0.00000000E+00  0.00000000E+00  0.00000000E+00
  0.00000000E+00  0.00000000E+00  0.00000000E+00
  0.00000000E+00  0.00000000E+00  0.00000000E+00
  0.00000000E+00  0.00000000E+00  0.00000000E+00
  0.00000000E+00  0.00000000E+00  0.00000000E+00
  0.00000000E+00  0.00000000E+00  0.00000000E+00
  0.00000000E+00  0.00000000E+00  0.00000000E+00
  0.00000000E+00  0.00000000E+00  0.00000000E+00
  0.00000000E+00  0.00000000E+00  0.00000000E+00
  0.00000000E+00  0.00000000E+00  0.00000000E+00
  0.00000000E+00  0.00000000E+00  0.00000000E+00
  0.00000000E+00  0.00000000E+00  0.00000000E+00
  0.00000000E+00  0.00000000E+00  0.00000000E+00
  0.00000000E+00  0.00000000E+00  0.00000000E+00
  0.00000000E+00  0.00000000E+00  0.00000000E+00
  0.00000000E+00  0.00000000E+00  0.00000000E+00
  0.00000000E+00  0.00000000E+00  0.00000000E+00
  0.00000000E+00  0.00000000E+00  0.00000000E+00
  0.00000000E+00  0.00000000E+00  0.00000000E+00
  0.00000000E+00  0.00000000E+00  0.00000000E+00
  0.00000000E+00  0.00000000E+00  0.00000000E+00
  0.00000000E+00  0.00000000E+00  0.00000000E+00
  0.00000000E+00  0.00000000E+00  0.00000000E+00
  0.00000000E+00  0.00000000E+00  0.00000000E+00
  0.00000000E+00  0.00000000E+00  0.00000000E+00
  0.00000000E+00  0.00000000E+00  0.00000000E+00
  0.00000000E+00  0.00000000E+00  0.00000000E+00
  0.00000000E+00  0.00000000E+00  0.00000000E+00
  0.00000000E+00  0.00000000E+00  0.00000000E+00
  0.00000000E+00  0.00000000E+00  0.00000000E+00
  0.00000000E+00  0.00000000E+00  0.00000000E+00
  0.00000000E+00  0.00000000E+00  0.00000000E+00
  0.00000000E+00  0.00000000E+00  0.00000000E+00
  0.00000000E+00  0.00000000E+00  0.00000000E+00
  0.00000000E+00  0.00000000E+00  0.00000000E+00
  0.00000000E+00  0.00000000E+00  0.00000000E+00
  0.00000000E+00  0.00000000E+00  0.00000000E+00
  0.00000000E+00  0.00000000E+00  0.00000000E+00
  0.00000000E+00  0.00000000E+00  0.00000000E+00
  0.00000000E+00  0.00000000E+00  0.00000000E+00
  0.00000000E+00  0.00000000E+00  0.00000000E+00
  0.00000000E+00  0.00000000E+00  0.00000000E+00
  0.00000000E+00  0.00000000E+00  0.00000000E+00
  0.00000000E+00  0.00000000E+00  0.00000000E+00
  0.00000000E+00  0.00000000E+00  0.00000000E+00
  0.00000000E+00  0.00000000E+00  0.00000000E+00
  0.00000000E+00  0.00000000E+00  0.00000000E+00
  0.00000000E+00  0.00000000E+00  0.00000000E+00
  0.00000000E+00  0.00000000E+00  0.00000000E+00
  0.00000000E+00  0.00000000E+00  0.00000000E+00
  0.00000000E+00  0.00000000E+00  0.00000000E+00
  0.00000000E+00  0.00000000E+00  0.00000000E+00