TiO2_rutile-Ovaxial-adjustTiagain       
   1.00000000000000     
     9.1880000000000006    0.0000000000000000    0.0000000000000000
     0.0000000000000000    9.1880000000000006    0.0000000000000000
     0.0000000000000000    0.0000000000000000    8.8770000000000007
   O    Ti
    47    24
Selective dynamics
Direct
  0.1510588448095600  0.1512103842230809  0.0059194205310784   T   T   T
  0.3475563895648216  0.3472119915553179 -0.0021258076354890   T   T   T
  0.1000261425247611  0.4037566049517626  0.1663199312496219   T   T   T
  0.4036748552396069  0.0996780462121293  0.1663169119885923   T   T   T
  0.6551170061781985  0.1488197618396172  0.0011615507866521   T   T   T
  0.8506077752217388  0.3481217154137852 -0.0012361408602901   T   T   T
  0.5978403573254158  0.4010107829647458  0.1663358790860194   T   T   T
  0.9019396844221076  0.0979096230683754  0.1664091545173558   T   T   T
  0.1488570790237819  0.6550331941320996  0.0010908148382348   T   T   T
  0.3485240367993392  0.8502083938130770 -0.0011777745416255   T   T   T
  0.0982663669581563  0.9019211506102951  0.1662937365449655   T   T   T
  0.4009522824767102  0.5974093955751546  0.1663289469460390   T   T   T
  0.6514435102823639  0.6515050865512553 -0.0036814042095454   T   T   T
  0.8475821392077497  0.8473661206556038  0.0015214601609598   T   T   T
  0.5973330814787903  0.9005571988142551  0.1664607206705628   T   T   T
  0.9005183602494620  0.5970331292318453  0.1664478749671150   T   T   T
  0.1508802614746222  0.1508553529861457  0.3267063398110926   T   T   T
  0.3472702528031928  0.3469962661389812  0.3363219152289741   T   T   T
  0.1037944247501168  0.4039279079263010  0.5019457832274143   T   T   T
  0.4039313233675705  0.1035912391794889  0.5019248466010263   T   T   T
  0.6550382539745919  0.1495979366858788  0.3321377785980919   T   T   T
  0.8515541046391915  0.3478960177302415  0.3333911610996569   T   T   T
  0.5960758029978747  0.3938976887342848  0.4959021201108655   T   T   T
  0.9057820871806127  0.1001851254565117  0.4995145084443890   T   T   T
  0.1496189965925465  0.6550197994551313  0.3321776489499711   T   T   T
  0.3482428430756126  0.8511722201564819  0.3333342799829117   T   T   T
  0.1005548554044099  0.9056518334959526  0.4994643262086345   T   T   T
  0.3940543945303973  0.5957052473623450  0.4960093520017864   T   T   T
  0.6513553320103889  0.6514354542333329  0.3353702320517148   T   T   T
  0.8476476938016951  0.8472655883992295  0.3307823167606707   T   T   T
  0.5983147020482584  0.9020462330631734  0.4992881531041186   T   T   T
  0.9020269735408132  0.5980416337426845  0.4993331925471690   T   T   T
  0.1566076599921611  0.1565139704605568  0.6673348602120246   T   T   T
  0.1040474816859298  0.4042582131099203  0.8312682172760693   T   T   T
  0.4041855005507496  0.1036897406806258  0.8312700334047055   T   T   T
  0.6563009790829427  0.1479694869221873  0.6658595632610104   T   T   T
  0.8484800457549332  0.3498817212832842  0.6669769888888922   T   T   T
  0.5940594272641302  0.3920705135518678  0.8365648082504483   T   T   T
  0.9052649370239622  0.0998377142889084  0.8334748360436811   T   T   T
  0.1480571577475077  0.6562169540413714  0.6658659176915827   T   T   T
  0.3501239059651418  0.8482876122281349  0.6669631725686432   T   T   T
  0.1000900734947740  0.9051063690324069  0.8336013799490044   T   T   T
  0.3920669361989528  0.5936707782231977  0.8365074152988967   T   T   T
  0.6562052744551665  0.6562975408750291  0.6660902747885011   T   T   T
  0.8506109708626319  0.8503034726772645  0.6659181608673678   T   T   T
  0.5990271470240242  0.9025170162215782  0.8333802119075077   T   T   T
  0.9022916539707008  0.5985534090933977  0.8333781703395948   T   T   T
 -0.0027588420949130 -0.0029563128512970  0.0008083256412695   T   T   T
  0.2541635827665319  0.2540401087300841  0.1667761492502025   T   T   T
  0.5008766065393139  0.0007037495532279 -0.0001313077798662   T   T   T
  0.7504123225526440  0.2524078383534840  0.1663883998140954   T   T   T
  0.0008314183767007  0.5007080254067456 -0.0000861501673240   T   T   T
  0.2524965874309858  0.7501904556307111  0.1664023135438243   T   T   T
  0.4992220214163343  0.4990273757459521 -0.0032681280195217   T   T   T
  0.7457474080057251  0.7456324690100616  0.1661499323518962   T   T   T
 -0.0028913630945590 -0.0029015422846212  0.3320641788497157   T   T   T
  0.2412737055353600  0.2411507617543396  0.4916724637343060   T   T   T
  0.5013326238852209  0.0015521951389963  0.3329945161148684   T   T   T
  0.7503544111649637  0.2511500462544407  0.4995622096581452   T   T   T
  0.0016470641030081  0.5012798350535280  0.3330403399585490   T   T   T
  0.2513501777725946  0.7501143298583285  0.4996501423032832   T   T   T
  0.4984723711584323  0.4983704130412564  0.3359359067616878   T   T   T
  0.7522324078148175  0.7521060828466338  0.4984548314279845   T   T   T
  0.0007925927710118  0.0004086604558062  0.6666211552325476   T   T   T
  0.2425030791618519  0.2424244618816973  0.8421550993768243   T   T   T
  0.5010220705670385  0.0003470721589293  0.6665536673401614   T   T   T
  0.7490567325994534  0.2497805593699677  0.8331790697396781   T   T   T
  0.0004365024249046  0.5009321579185996  0.6666367273770852   T   T   T
  0.2500908040451671  0.7488625506859272  0.8332452126256653   T   T   T
  0.5083173212584856  0.5080088924169852  0.6665468200710898   T   T   T
  0.7525640288107510  0.7524671768219157  0.8332688842771674   T   T   T
 
  0.00000000E+00  0.00000000E+00  0.00000000E+00
  0.00000000E+00  0.00000000E+00  0.00000000E+00
  0.00000000E+00  0.00000000E+00  0.00000000E+00
  0.00000000E+00  0.00000000E+00  0.00000000E+00
  0.00000000E+00  0.00000000E+00  0.00000000E+00
  0.00000000E+00  0.00000000E+00  0.00000000E+00
  0.00000000E+00  0.00000000E+00  0.00000000E+00
  0.00000000E+00  0.00000000E+00  0.00000000E+00
  0.00000000E+00  0.00000000E+00  0.00000000E+00
  0.00000000E+00  0.00000000E+00  0.00000000E+00
  0.00000000E+00  0.00000000E+00  0.00000000E+00
  0.00000000E+00  0.00000000E+00  0.00000000E+00
  0.00000000E+00  0.00000000E+00  0.00000000E+00
  0.00000000E+00  0.00000000E+00  0.00000000E+00
  0.00000000E+00  0.00000000E+00  0.00000000E+00
  0.00000000E+00  0.00000000E+00  0.00000000E+00
  0.00000000E+00  0.00000000E+00  0.00000000E+00
  0.00000000E+00  0.00000000E+00  0.00000000E+00
  0.00000000E+00  0.00000000E+00  0.00000000E+00
  0.00000000E+00  0.00000000E+00  0.00000000E+00
  0.00000000E+00  0.00000000E+00  0.00000000E+00
  0.00000000E+00  0.00000000E+00  0.00000000E+00
  0.00000000E+00  0.00000000E+00  0.00000000E+00
  0.00000000E+00  0.00000000E+00  0.00000000E+00
  0.00000000E+00  0.00000000E+00  0.00000000E+00
  0.00000000E+00  0.00000000E+00  0.00000000E+00
  0.00000000E+00  0.00000000E+00  0.00000000E+00
  0.00000000E+00  0.00000000E+00  0.00000000E+00
  0.00000000E+00  0.00000000E+00  0.00000000E+00
  0.00000000E+00  0.00000000E+00  0.00000000E+00
  0.00000000E+00  0.00000000E+00  0.00000000E+00
  0.00000000E+00  0.00000000E+00  0.00000000E+00
  0.00000000E+00  0.00000000E+00  0.00000000E+00
  0.00000000E+00  0.00000000E+00  0.00000000E+00
  0.00000000E+00  0.00000000E+00  0.00000000E+00
  0.00000000E+00  0.00000000E+00  0.00000000E+00
  0.00000000E+00  0.00000000E+00  0.00000000E+00
  0.00000000E+00  0.00000000E+00  0.00000000E+00
  0.00000000E+00  0.00000000E+00  0.00000000E+00
  0.00000000E+00  0.00000000E+00  0.00000000E+00
  0.00000000E+00  0.00000000E+00  0.00000000E+00
  0.00000000E+00  0.00000000E+00  0.00000000E+00
  0.00000000E+00  0.00000000E+00  0.00000000E+00
  0.00000000E+00  0.00000000E+00  0.00000000E+00
  0.00000000E+00  0.00000000E+00  0.00000000E+00
  0.00000000E+00  0.00000000E+00  0.00000000E+00
  0.00000000E+00  0.00000000E+00  0.00000000E+00
  0.00000000E+00  0.00000000E+00  0.00000000E+00
  0.00000000E+00  0.00000000E+00  0.00000000E+00
  0.00000000E+00  0.00000000E+00  0.00000000E+00
  0.00000000E+00  0.00000000E+00  0.00000000E+00
  0.00000000E+00  0.00000000E+00  0.00000000E+00
  0.00000000E+00  0.00000000E+00  0.00000000E+00
  0.00000000E+00  0.00000000E+00  0.00000000E+00
  0.00000000E+00  0.00000000E+00  0.00000000E+00
  0.00000000E+00  0.00000000E+00  0.00000000E+00
  0.00000000E+00  0.00000000E+00  0.00000000E+00
  0.00000000E+00  0.00000000E+00  0.00000000E+00
  0.00000000E+00  0.00000000E+00  0.00000000E+00
  0.00000000E+00  0.00000000E+00  0.00000000E+00
  0.00000000E+00  0.00000000E+00  0.00000000E+00
  0.00000000E+00  0.00000000E+00  0.00000000E+00
  0.00000000E+00  0.00000000E+00  0.00000000E+00
  0.00000000E+00  0.00000000E+00  0.00000000E+00
  0.00000000E+00  0.00000000E+00  0.00000000E+00
  0.00000000E+00  0.00000000E+00  0.00000000E+00
  0.00000000E+00  0.00000000E+00  0.00000000E+00
  0.00000000E+00  0.00000000E+00  0.00000000E+00
  0.00000000E+00  0.00000000E+00  0.00000000E+00
  0.00000000E+00  0.00000000E+00  0.00000000E+00
  0.00000000E+00  0.00000000E+00  0.00000000E+00
